SiC Unit Cell                           
   1.00000000000000     
    13.1969049856226093    0.0924705154290928   -0.1008147063611254
     0.0927965364380254   13.0656176671115727   -0.2149858685427011
    -0.1001114028385308   -0.2158445709131622   13.0623577843755196
   C    Si   H 
    95    65    76
Direct
  0.0013305069876344  0.9902997888432054  0.0125775071491891
  0.1398164727007934  0.1448793028937718  0.0223588496228938
  0.1270417758805030  0.0069158961362164  0.1754274795316446
  0.0023736444617495  0.1608424715100262  0.1583922312944066
  0.3224392052051370 -0.0194922751601868  0.0127555212228051
  0.6625794772271572 -0.0010706431177208  0.0002321535444612
  0.4942999369490804  0.1679409847649284  0.0071260796119371
  0.8320164402262612  0.1692609565075483 -0.0012393624374560
  0.5037931238134613  0.9971570359094541  0.1745850317994311
  0.8476479467749850 -0.0022436370916877  0.1512624514572162
  0.6704597493317372  0.1608186258896525  0.1566223800424119
  0.9902946141803642  0.3347047797171092  0.0048222988116432
  0.0046985473796473  0.6703438105397920  0.0109741260419670
  0.1621692681764332  0.5008492426703232  0.0006543221174758
  0.1707059676625672  0.8435427874757436  0.0106857831932872
  0.1577050845448920  0.3448802605585958  0.1681436925419892
  0.1473395535151815  0.6510006357880286  0.1776459781056094
  0.9970126408522626  0.5041441626069149  0.1792422304279437
  0.9897824771047307  0.8527143955197111  0.1656351582473308
  0.3184517693043871  0.3359046911920681  0.0124986425093656
  0.3367295406757209  0.6720582488256963  0.0057730889774276
  0.6704836395728757  0.3404781729262267  0.0054418101630607
  0.6543063851512482  0.6822340213595672  0.0009247258487352
  0.5252387743721000  0.5311158161307536  0.0045430437530088
  0.4991796471308111  0.8214086993200552  0.0017420102399187
  0.8322410327718576  0.5155133069127078  0.0073902074531580
  0.8468031040331452  0.8481264231007345  0.0130805055476414
  0.4967623388822778  0.6783759152560603  0.1290396337976049
  0.8440637733308096  0.3682787554218312  0.1809391427253371
  0.8532756461146455  0.6993293862821321  0.1701884414105891
  0.3079612213729013  0.4745420340279801  0.1646004129059684
  0.3447625646350014  0.8276410001061176  0.1323924083477095
  0.6477808189188512  0.5434005198541660  0.1485845053248132
  0.6746589594661533  0.8457233464539919  0.1652806139324714
  0.0054156934261854  0.9945998573176948  0.3237404984099236
  0.0066932045292496  0.9726084668147196  0.6661896198651893
  0.1616285177748999  0.1321682965988872  0.6776261475736446
  0.1761076428517111  0.9845339275199387  0.5171027463670135
  0.1467081344472624  0.9800774018073766  0.8582789546560302
  0.0176072925061481  0.1578542033726458  0.4907377867979777
  0.9853716939383605  0.1556894540513219  0.8291177640472022
  0.3255945454355597  0.9814667269900397  0.3265448570847237
  0.3156553559916169  0.0016529471468027  0.6760978688979258
  0.6706313007987789  0.0048751113607432  0.3369706499837801
  0.6620277296542508  0.9771496993732497  0.6741240073854163
  0.8479818318027453  0.1558961959207050  0.3292428630443750
  0.4836936416285236  0.9835650478944061  0.5049310545043761
  0.4904458293475726 -0.0025020882880988  0.8397926101165936
  0.8365565166942363 -0.0025308534463353  0.4986443886316494
  0.8306203217999549  0.9850969328169082  0.8361237635195967
  0.3072871377392527  0.1474317702649752  0.8650658846686664
  0.6610310465314690  0.1595777969952406  0.8368982294100912
  0.9884530134710175  0.3485195045907046  0.3195038740688195
  0.0043899426880884  0.3312495590798171  0.6615838915356895
  0.0151090971207596  0.6397442656743827  0.3272397403249077
  0.0110348586132571  0.6782821378965260  0.6856963759360262
  0.1550893334211787  0.5023607084723547  0.2980232000989090
  0.1343692633784903  0.8585185135066064  0.3034863620638146
  0.1486825646397973  0.3075387060967145  0.8506932424006379
  0.1495851056344399  0.6774127595750670  0.8393810157630971
  0.0059698784360947  0.5168906093754827  0.4830738173141095
  0.0022441050277829  0.4982394093926041  0.8392432205398040
  0.9985111829757134  0.8246697065365014  0.4828313806148222
  0.0108214838555013  0.8292247507745067  0.8505303913233803
  0.4923930402184034  0.8302507641595749  0.3352858426904363
  0.4907256139488033  0.8331643142413082  0.6782838698087824
  0.8727414873680022  0.5048463031389712  0.3311936689230397
  0.8508415147734880  0.5118879879985909  0.6771164825438826
  0.8514367954985772  0.8381859481919742  0.3049232884651351
  0.8403133187583731  0.8241484741652662  0.6533565290107743
  0.5116504489191930  0.6912828193588040  0.8589598671053773
  0.8329026026908080  0.3392900087411571  0.8364518127348392
  0.8709613697565644  0.6471769255071284  0.4697031393834772
  0.8439027488185503  0.6722573963361249  0.8492954522504015
  0.3293630554725873  0.8265688291593964  0.8384178949160696
  0.6793723365748623  0.5060647363658818  0.8354885600611530
  0.6700400215032288  0.8346914093224156  0.4899640952352066
  0.6481623492703087  0.8241418691746563  0.8611337982420697
  0.3639910052080718  0.4024355291029559  0.0931941923531259
  0.9258137684797000  0.4316213558290373  0.2509655921464261
  0.2196004351772675  0.6274614787750348  0.7606394049782480
  0.5823268776596510  0.6095191341446953  0.0709203481615153
  0.4211630168186390  0.7501296980501849  0.0656541854663023
  0.5788766195312143  0.7567627887017085  0.9324085713516620
  0.0840634766053610  0.9106556040698576  0.9324360373620023
  0.0637976311484682  0.9273295016607612  0.2393617059675556
  0.9149310415110822  0.7840077388992707  0.2247252449781562
  0.0733282648520556  0.7477994927600650  0.7790427548013784
  0.2216453628013778  0.4235904228236205  0.2319410689364032
  0.2674204772931083  0.8969756111096717  0.0649722624384925
  0.9204852760599670  0.9214151384499667  0.0843482004138464
  0.2335355573246808  0.0594779014886313  0.6071397560487285
  0.9420041930997592  0.5793466160813482  0.3992544328650984
  0.0756442009684733  0.5747312361735789  0.2434660109631732
  0.0701886103494105  0.0745960930848508  0.0921827015965796
  0.2265796608189413  0.2500694800403152  0.0865920654822859
  0.0730726172284125  0.2612315545459519  0.2421057437899093
  0.2406735401699226  0.0594169780287629  0.2436135020472124
  0.4202066370071844  0.0860085772607398  0.1029279846637457
  0.7552076760107448  0.0817179339976079  0.0765061082146808
  0.5885609021860994  0.2517830654514477  0.0830721239249069
  0.9106823062464287  0.2564780451836389  0.0894260792825802
  0.5930653650863941  0.0886814400948441  0.2482668890498036
  0.9251714604857542  0.0806321983212747  0.2412506558515737
  0.0740824484284641  0.4223100232596331  0.0840922607570717
  0.0838180975761757  0.7573734180109137  0.0958364398473387
  0.2457750729123681  0.5823124191425592  0.0874863730116492
  0.7471664410269262  0.4400292991894745  0.0903228785430960
  0.7548789371434107  0.7628915812026428  0.0834524221053548
  0.5818698932371983  0.9158090933347619  0.0851227832969400
  0.9204018755958695  0.5943357512448263  0.0940603575313901
  0.4165270909614940  0.9074766557963341  0.2401768776568103
  0.7587839797744631  0.9291980874678506  0.2412772310026528
  0.0947005570940345  0.0621193596798478  0.4209249604868899
  0.0742043242994619  0.0611682790891355  0.7602251001818049
  0.2334261249712917  0.2229370633030454  0.7701405213822290
  0.0903761765615647  0.2298860686079832  0.5944279806265489
  0.0640871281319266  0.2329441458490012  0.9283051016241521
  0.2297397150954124  0.0643848169472439  0.9417452771209496
  0.4033124113461526  0.0636055233914493  0.4164421540286430
  0.3924110695021418  0.0794363710021922  0.7720632310753489
  0.7622865269170739  0.0876124375549740  0.4147042728560368
  0.7395262014766448  0.0636302379683362  0.7592467280588092
  0.6142853516173437  0.2489986445541382  0.7353560862818019
  0.9298871093166048  0.2424104160959934  0.4076675369761716
  0.9127364656013143  0.2586455083118601  0.7465197981707239
  0.3946072895244713  0.2389183130068395  0.9338899510759775
  0.7490238014803176  0.2538561157247228  0.9159449462064720
  0.5748626988275866  0.0546280136402042  0.5903764045168205
  0.5759804623661133  0.0833622062988781  0.9206072341470483
  0.9399407284040843  0.0646339775576125  0.5738126651113252
  0.9130277277651111  0.0744843995830434  0.9198824289984072
  0.0841569434413734  0.4289484386686638  0.3970162891601577
  0.0815581904171794  0.3993792770830848  0.7642129225113243
  0.0779596878351220  0.7531600071754131  0.3831133257872014
  0.2359725373351743  0.9070226431004337  0.4015010238253472
  0.2459929728378401  0.9159289843025120  0.7679593525822845
  0.0845103086921052  0.5888796513304214  0.5863770421856334
  0.0814678462785180  0.5858352492025769  0.9222590807385801
  0.0876548866624539  0.8917126558494448  0.5734007936409927
  0.2317912869563990  0.4020481741130747  0.9213847197724884
  0.2452215527086359  0.7515556848504640  0.9230648846398387
  0.4239653014059700  0.7483952640485906  0.7633595288181110
  0.7619889653196102  0.4285740743245972  0.7480658927514598
  0.5801827870965046  0.9155705916936795  0.4135058852246971
  0.5769351952878122  0.9073278658716101  0.7627639981502898
  0.9274043473480463  0.5923736179028605  0.7612640656145828
  0.9200818904656796  0.9137337782926005  0.4068519335856958
  0.9199622017658515  0.9010232020352754  0.7533426131712627
  0.4329018220564295  0.5949677077246792  0.9257326862203175
  0.4040256183544632  0.9114163278250398  0.5981564256115749
  0.4142516456283713  0.9094373588317524  0.9231892992437604
  0.7493814486336057  0.5974789812789766  0.9210954772266057
  0.7542080001461181  0.9109752893358701  0.5803321928203008
  0.7497079535249966  0.9104987057333364  0.9246415174686089
  0.5934665810506656  0.4357940200424525  0.9261791755914476
  0.9277971620468495  0.4352400300695847  0.5816965527764759
  0.9124643441544767  0.4237612741815236  0.9226526655579702
  0.9300760666972984  0.7408881528932776  0.5745048943108096
  0.9240695173379452  0.7566577008780380  0.9323228286155876
  0.7105373606119455  0.2158378374038431  0.2070042923719867
  0.7969823676538307  0.3315947678161177  0.2376524792703352
  0.7971438513938920  0.2100459664377191  0.2917567648499684
  0.5933240757368151  0.4997523336838936  0.1926284851052776
  0.8302548343715733  0.4571052589099653  0.3831847531376052
  0.6752071696645131  0.2295858194875433  0.6418337253775782
  0.7058220752914817  0.3898302032806450  0.6544119477592119
  0.2399437971980816  0.6825026292372456  0.7031500617329108
  0.3939825909612276  0.6601152792510204  0.6951929534782705
  0.4523420987529036  0.6244163995832291  0.1724747551050713
  0.3634732164986324  0.5061388802027327  0.2204925661508369
  0.7859215109074632  0.7727495684682849  0.6875443272102462
  0.8018944494402448  0.7199958219291075  0.7961339328476996
  0.6824820612588727  0.7660887810006806  0.8091349199449203
  0.5599058438554357  0.6434879165194305  0.8086643248859041
  0.6262331932493380  0.5458381683344034  0.7844709029893041
  0.7961672882662297  0.5559424937309603  0.6309367535437592
  0.8166119491797447  0.5943736779262697  0.5015421853265759
  0.5323924471259419  0.7815251120257478  0.6252435651098027
  0.6281683484712680  0.7790343468848094  0.5334908972349421
  0.4309969465399807  0.1729503083404897  0.7276214302169266
  0.5099812132466314  0.2814446417781434  0.7052270975539902
  0.5213405797296389  0.1316404977589263  0.6549066236321091
  0.2758962588442664  0.1136146510963085  0.5629716202373748
  0.3420625235701784  0.1481044848351880  0.4646918190755150
  0.3023355539300951  0.2883447027819672  0.7104890342214993
  0.1960334422073328  0.6835883888053985  0.2391920537679994
  0.2996323958180962  0.7736185122763375  0.1750053690452257
  0.1912768871947884  0.8219553607037287  0.2531162841626446
  0.2086004563055172  0.5521156972572226  0.3416786423057162
  0.4386101638483123  0.8032197634551322  0.3919916255722119
  0.1320569181156550  0.2181517376679696  0.3276533671989945
  0.2564820324563356  0.1718104106156801  0.2654988316916785
  0.1823354163060198  0.1068610006584613  0.3671046592814652
  0.1796752146059958  0.2815380496415243  0.5525180993186259
  0.1621187436694523  0.3663112643304542  0.4494696548374997
  0.2662795855003040  0.3808251787136486  0.2892601102039278
  0.8100053486925197  0.6645193136085252  0.2305160610198915
  0.6883055775086462  0.5922191522810999  0.2056128160387920
  0.8154522716131321  0.5517688252561979  0.2923482539671214
  0.5356717603090237  0.7274847124667467  0.1846225967366536
  0.6370428133400277  0.7983308552583238  0.2203281907759406
  0.5328312715916049  0.7617435443048148  0.3072870934865504
  0.8009764290463337  0.7821078243901544  0.3367484355478210
  0.8244048856739618  0.6984415064949612  0.4234100484039923
  0.7150925426768576  0.7893513056016414  0.4348927534083603
  0.3109734865363254  0.2014150088918530  0.1406936302986282
  0.3078391108734376  0.0653978806971000  0.1512448185120098
  0.4224510635756120  0.1699891287372197  0.1889920421449019
  0.5401048003507020  0.3154906887318076  0.1664097861513618
  0.4408159856329300  0.3843609492354479  0.1175323776096752
  0.5623938720254879  0.1837748703745038  0.3066488722641261
  0.4728149097117905  0.1214518107881319  0.3557613036299904
  0.1792909543500935  0.4351974492709301  0.7255228278496899
  0.1874523177699520  0.5610035316959189  0.7204150941818771
  0.1183116641192791  0.4908346711096258  0.6288829736730648
  0.7953486532082142  0.1205165346147159  0.6852088318109382
  0.8270120260421145  0.2446017968339514  0.6718856757337526
  0.9080730835633647  0.1457049838231993  0.6460950532236300
  0.7212094680874259  0.1818194567888683  0.4674458195310656
  0.6359042984672324  0.1132616975015154  0.5212137464607448
  0.8561296536712333  0.2791992248387219  0.4838964919693282
  0.8389029612709772  0.3996614841419904  0.5216289520580444
  0.6467350190161445  0.3435025990306361  0.7907036178602774
  0.4350698650148631  0.2918834753334328  0.8457033061137879
  0.5135975223894030  0.3889945075881769  0.8614313874012230
  0.2899605657398648  0.5974401863726950  0.7941181085779294
  0.2928048817816694  0.4452540608235769  0.8401776660519606
  0.3969300731046200  0.5255298279626691  0.8417085899659930
  0.1223662474001366  0.7939004702566494  0.7341565505060779
  0.1991607864240245  0.8584851163010161  0.6833223581810328
  0.1421272471036312  0.7945834672606790  0.5953218456836080
  0.1740585851736957  0.7188840435632019  0.4341084340957846
  0.1773591829146821  0.6364260148148447  0.5481400463927487
  0.2863069969046757  0.8076654896699397  0.4206422520318112
  0.3383376785385432  0.8331598563939252  0.5476184748950850
 
  0.00000000E+00  0.00000000E+00  0.00000000E+00
  0.00000000E+00  0.00000000E+00  0.00000000E+00
  0.00000000E+00  0.00000000E+00  0.00000000E+00
  0.00000000E+00  0.00000000E+00  0.00000000E+00
  0.00000000E+00  0.00000000E+00  0.00000000E+00
  0.00000000E+00  0.00000000E+00  0.00000000E+00
  0.00000000E+00  0.00000000E+00  0.00000000E+00
  0.00000000E+00  0.00000000E+00  0.00000000E+00
  0.00000000E+00  0.00000000E+00  0.00000000E+00
  0.00000000E+00  0.00000000E+00  0.00000000E+00
  0.00000000E+00  0.00000000E+00  0.00000000E+00
  0.00000000E+00  0.00000000E+00  0.00000000E+00
  0.00000000E+00  0.00000000E+00  0.00000000E+00
  0.00000000E+00  0.00000000E+00  0.00000000E+00
  0.00000000E+00  0.00000000E+00  0.00000000E+00
  0.00000000E+00  0.00000000E+00  0.00000000E+00
  0.00000000E+00  0.00000000E+00  0.00000000E+00
  0.00000000E+00  0.00000000E+00  0.00000000E+00
  0.00000000E+00  0.00000000E+00  0.00000000E+00
  0.00000000E+00  0.00000000E+00  0.00000000E+00
  0.00000000E+00  0.00000000E+00  0.00000000E+00
  0.00000000E+00  0.00000000E+00  0.00000000E+00
  0.00000000E+00  0.00000000E+00  0.00000000E+00
  0.00000000E+00  0.00000000E+00  0.00000000E+00
  0.00000000E+00  0.00000000E+00  0.00000000E+00
  0.00000000E+00  0.00000000E+00  0.00000000E+00
  0.00000000E+00  0.00000000E+00  0.00000000E+00
  0.00000000E+00  0.00000000E+00  0.00000000E+00
  0.00000000E+00  0.00000000E+00  0.00000000E+00
  0.00000000E+00  0.00000000E+00  0.00000000E+00
  0.00000000E+00  0.00000000E+00  0.00000000E+00
  0.00000000E+00  0.00000000E+00  0.00000000E+00
  0.00000000E+00  0.00000000E+00  0.00000000E+00
  0.00000000E+00  0.00000000E+00  0.00000000E+00
  0.00000000E+00  0.00000000E+00  0.00000000E+00
  0.00000000E+00  0.00000000E+00  0.00000000E+00
  0.00000000E+00  0.00000000E+00  0.00000000E+00
  0.00000000E+00  0.00000000E+00  0.00000000E+00
  0.00000000E+00  0.00000000E+00  0.00000000E+00
  0.00000000E+00  0.00000000E+00  0.00000000E+00
  0.00000000E+00  0.00000000E+00  0.00000000E+00
  0.00000000E+00  0.00000000E+00  0.00000000E+00
  0.00000000E+00  0.00000000E+00  0.00000000E+00
  0.00000000E+00  0.00000000E+00  0.00000000E+00
  0.00000000E+00  0.00000000E+00  0.00000000E+00
  0.00000000E+00  0.00000000E+00  0.00000000E+00
  0.00000000E+00  0.00000000E+00  0.00000000E+00
  0.00000000E+00  0.00000000E+00  0.00000000E+00
  0.00000000E+00  0.00000000E+00  0.00000000E+00
  0.00000000E+00  0.00000000E+00  0.00000000E+00
  0.00000000E+00  0.00000000E+00  0.00000000E+00
  0.00000000E+00  0.00000000E+00  0.00000000E+00
  0.00000000E+00  0.00000000E+00  0.00000000E+00
  0.00000000E+00  0.00000000E+00  0.00000000E+00
  0.00000000E+00  0.00000000E+00  0.00000000E+00
  0.00000000E+00  0.00000000E+00  0.00000000E+00
  0.00000000E+00  0.00000000E+00  0.00000000E+00
  0.00000000E+00  0.00000000E+00  0.00000000E+00
  0.00000000E+00  0.00000000E+00  0.00000000E+00
  0.00000000E+00  0.00000000E+00  0.00000000E+00
  0.00000000E+00  0.00000000E+00  0.00000000E+00
  0.00000000E+00  0.00000000E+00  0.00000000E+00
  0.00000000E+00  0.00000000E+00  0.00000000E+00
  0.00000000E+00  0.00000000E+00  0.00000000E+00
  0.00000000E+00  0.00000000E+00  0.00000000E+00
  0.00000000E+00  0.00000000E+00  0.00000000E+00
  0.00000000E+00  0.00000000E+00  0.00000000E+00
  0.00000000E+00  0.00000000E+00  0.00000000E+00
  0.00000000E+00  0.00000000E+00  0.00000000E+00
  0.00000000E+00  0.00000000E+00  0.00000000E+00
  0.00000000E+00  0.00000000E+00  0.00000000E+00
  0.00000000E+00  0.00000000E+00  0.00000000E+00
  0.00000000E+00  0.00000000E+00  0.00000000E+00
  0.00000000E+00  0.00000000E+00  0.00000000E+00
  0.00000000E+00  0.00000000E+00  0.00000000E+00
  0.00000000E+00  0.00000000E+00  0.00000000E+00
  0.00000000E+00  0.00000000E+00  0.00000000E+00
  0.00000000E+00  0.00000000E+00  0.00000000E+00
  0.00000000E+00  0.00000000E+00  0.00000000E+00
  0.00000000E+00  0.00000000E+00  0.00000000E+00
  0.00000000E+00  0.00000000E+00  0.00000000E+00
  0.00000000E+00  0.00000000E+00  0.00000000E+00
  0.00000000E+00  0.00000000E+00  0.00000000E+00
  0.00000000E+00  0.00000000E+00  0.00000000E+00
  0.00000000E+00  0.00000000E+00  0.00000000E+00
  0.00000000E+00  0.00000000E+00  0.00000000E+00
  0.00000000E+00  0.00000000E+00  0.00000000E+00
  0.00000000E+00  0.00000000E+00  0.00000000E+00
  0.00000000E+00  0.00000000E+00  0.00000000E+00
  0.00000000E+00  0.00000000E+00  0.00000000E+00
  0.00000000E+00  0.00000000E+00  0.00000000E+00
  0.00000000E+00  0.00000000E+00  0.00000000E+00
  0.00000000E+00  0.00000000E+00  0.00000000E+00
  0.00000000E+00  0.00000000E+00  0.00000000E+00
  0.00000000E+00  0.00000000E+00  0.00000000E+00
  0.00000000E+00  0.00000000E+00  0.00000000E+00
  0.00000000E+00  0.00000000E+00  0.00000000E+00
  0.00000000E+00  0.00000000E+00  0.00000000E+00
  0.00000000E+00  0.00000000E+00  0.00000000E+00
  0.00000000E+00  0.00000000E+00  0.00000000E+00
  0.00000000E+00  0.00000000E+00  0.00000000E+00
  0.00000000E+00  0.00000000E+00  0.00000000E+00
  0.00000000E+00  0.00000000E+00  0.00000000E+00
  0.00000000E+00  0.00000000E+00  0.00000000E+00
  0.00000000E+00  0.00000000E+00  0.00000000E+00
  0.00000000E+00  0.00000000E+00  0.00000000E+00
  0.00000000E+00  0.00000000E+00  0.00000000E+00
  0.00000000E+00  0.00000000E+00  0.00000000E+00
  0.00000000E+00  0.00000000E+00  0.00000000E+00
  0.00000000E+00  0.00000000E+00  0.00000000E+00
  0.00000000E+00  0.00000000E+00  0.00000000E+00
  0.00000000E+00  0.00000000E+00  0.00000000E+00
  0.00000000E+00  0.00000000E+00  0.00000000E+00
  0.00000000E+00  0.00000000E+00  0.00000000E+00
  0.00000000E+00  0.00000000E+00  0.00000000E+00
  0.00000000E+00  0.00000000E+00  0.00000000E+00
  0.00000000E+00  0.00000000E+00  0.00000000E+00
  0.00000000E+00  0.00000000E+00  0.00000000E+00
  0.00000000E+00  0.00000000E+00  0.00000000E+00
  0.00000000E+00  0.00000000E+00  0.00000000E+00
  0.00000000E+00  0.00000000E+00  0.00000000E+00
  0.00000000E+00  0.00000000E+00  0.00000000E+00
  0.00000000E+00  0.00000000E+00  0.00000000E+00
  0.00000000E+00  0.00000000E+00  0.00000000E+00
  0.00000000E+00  0.00000000E+00  0.00000000E+00
  0.00000000E+00  0.00000000E+00  0.00000000E+00
  0.00000000E+00  0.00000000E+00  0.00000000E+00
  0.00000000E+00  0.00000000E+00  0.00000000E+00
  0.00000000E+00  0.00000000E+00  0.00000000E+00
  0.00000000E+00  0.00000000E+00  0.00000000E+00
  0.00000000E+00  0.00000000E+00  0.00000000E+00
  0.00000000E+00  0.00000000E+00  0.00000000E+00
  0.00000000E+00  0.00000000E+00  0.00000000E+00
  0.00000000E+00  0.00000000E+00  0.00000000E+00
  0.00000000E+00  0.00000000E+00  0.00000000E+00
  0.00000000E+00  0.00000000E+00  0.00000000E+00
  0.00000000E+00  0.00000000E+00  0.00000000E+00
  0.00000000E+00  0.00000000E+00  0.00000000E+00
  0.00000000E+00  0.00000000E+00  0.00000000E+00
  0.00000000E+00  0.00000000E+00  0.00000000E+00
  0.00000000E+00  0.00000000E+00  0.00000000E+00
  0.00000000E+00  0.00000000E+00  0.00000000E+00
  0.00000000E+00  0.00000000E+00  0.00000000E+00
  0.00000000E+00  0.00000000E+00  0.00000000E+00
  0.00000000E+00  0.00000000E+00  0.00000000E+00
  0.00000000E+00  0.00000000E+00  0.00000000E+00
  0.00000000E+00  0.00000000E+00  0.00000000E+00
  0.00000000E+00  0.00000000E+00  0.00000000E+00
  0.00000000E+00  0.00000000E+00  0.00000000E+00
  0.00000000E+00  0.00000000E+00  0.00000000E+00
  0.00000000E+00  0.00000000E+00  0.00000000E+00
  0.00000000E+00  0.00000000E+00  0.00000000E+00
  0.00000000E+00  0.00000000E+00  0.00000000E+00
  0.00000000E+00  0.00000000E+00  0.00000000E+00
  0.00000000E+00  0.00000000E+00  0.00000000E+00
  0.00000000E+00  0.00000000E+00  0.00000000E+00
  0.00000000E+00  0.00000000E+00  0.00000000E+00
  0.00000000E+00  0.00000000E+00  0.00000000E+00
  0.00000000E+00  0.00000000E+00  0.00000000E+00
  0.00000000E+00  0.00000000E+00  0.00000000E+00
  0.00000000E+00  0.00000000E+00  0.00000000E+00
  0.00000000E+00  0.00000000E+00  0.00000000E+00
  0.00000000E+00  0.00000000E+00  0.00000000E+00
  0.00000000E+00  0.00000000E+00  0.00000000E+00
  0.00000000E+00  0.00000000E+00  0.00000000E+00
  0.00000000E+00  0.00000000E+00  0.00000000E+00
  0.00000000E+00  0.00000000E+00  0.00000000E+00
  0.00000000E+00  0.00000000E+00  0.00000000E+00
  0.00000000E+00  0.00000000E+00  0.00000000E+00
  0.00000000E+00  0.00000000E+00  0.00000000E+00
  0.00000000E+00  0.00000000E+00  0.00000000E+00
  0.00000000E+00  0.00000000E+00  0.00000000E+00
  0.00000000E+00  0.00000000E+00  0.00000000E+00
  0.00000000E+00  0.00000000E+00  0.00000000E+00
  0.00000000E+00  0.00000000E+00  0.00000000E+00
  0.00000000E+00  0.00000000E+00  0.00000000E+00
  0.00000000E+00  0.00000000E+00  0.00000000E+00
  0.00000000E+00  0.00000000E+00  0.00000000E+00
  0.00000000E+00  0.00000000E+00  0.00000000E+00
  0.00000000E+00  0.00000000E+00  0.00000000E+00
  0.00000000E+00  0.00000000E+00  0.00000000E+00
  0.00000000E+00  0.00000000E+00  0.00000000E+00
  0.00000000E+00  0.00000000E+00  0.00000000E+00
  0.00000000E+00  0.00000000E+00  0.00000000E+00
  0.00000000E+00  0.00000000E+00  0.00000000E+00
  0.00000000E+00  0.00000000E+00  0.00000000E+00
  0.00000000E+00  0.00000000E+00  0.00000000E+00
  0.00000000E+00  0.00000000E+00  0.00000000E+00
  0.00000000E+00  0.00000000E+00  0.00000000E+00
  0.00000000E+00  0.00000000E+00  0.00000000E+00
  0.00000000E+00  0.00000000E+00  0.00000000E+00
  0.00000000E+00  0.00000000E+00  0.00000000E+00
  0.00000000E+00  0.00000000E+00  0.00000000E+00
  0.00000000E+00  0.00000000E+00  0.00000000E+00
  0.00000000E+00  0.00000000E+00  0.00000000E+00
  0.00000000E+00  0.00000000E+00  0.00000000E+00
  0.00000000E+00  0.00000000E+00  0.00000000E+00
  0.00000000E+00  0.00000000E+00  0.00000000E+00
  0.00000000E+00  0.00000000E+00  0.00000000E+00
  0.00000000E+00  0.00000000E+00  0.00000000E+00
  0.00000000E+00  0.00000000E+00  0.00000000E+00
  0.00000000E+00  0.00000000E+00  0.00000000E+00
  0.00000000E+00  0.00000000E+00  0.00000000E+00
  0.00000000E+00  0.00000000E+00  0.00000000E+00
  0.00000000E+00  0.00000000E+00  0.00000000E+00
  0.00000000E+00  0.00000000E+00  0.00000000E+00
  0.00000000E+00  0.00000000E+00  0.00000000E+00
  0.00000000E+00  0.00000000E+00  0.00000000E+00
  0.00000000E+00  0.00000000E+00  0.00000000E+00
  0.00000000E+00  0.00000000E+00  0.00000000E+00
  0.00000000E+00  0.00000000E+00  0.00000000E+00
  0.00000000E+00  0.00000000E+00  0.00000000E+00
  0.00000000E+00  0.00000000E+00  0.00000000E+00
  0.00000000E+00  0.00000000E+00  0.00000000E+00
  0.00000000E+00  0.00000000E+00  0.00000000E+00
  0.00000000E+00  0.00000000E+00  0.00000000E+00
  0.00000000E+00  0.00000000E+00  0.00000000E+00
  0.00000000E+00  0.00000000E+00  0.00000000E+00
  0.00000000E+00  0.00000000E+00  0.00000000E+00
  0.00000000E+00  0.00000000E+00  0.00000000E+00
  0.00000000E+00  0.00000000E+00  0.00000000E+00
  0.00000000E+00  0.00000000E+00  0.00000000E+00
  0.00000000E+00  0.00000000E+00  0.00000000E+00
  0.00000000E+00  0.00000000E+00  0.00000000E+00
  0.00000000E+00  0.00000000E+00  0.00000000E+00
  0.00000000E+00  0.00000000E+00  0.00000000E+00
  0.00000000E+00  0.00000000E+00  0.00000000E+00
  0.00000000E+00  0.00000000E+00  0.00000000E+00
  0.00000000E+00  0.00000000E+00  0.00000000E+00
  0.00000000E+00  0.00000000E+00  0.00000000E+00
  0.00000000E+00  0.00000000E+00  0.00000000E+00
  0.00000000E+00  0.00000000E+00  0.00000000E+00
  0.00000000E+00  0.00000000E+00  0.00000000E+00
  0.00000000E+00  0.00000000E+00  0.00000000E+00
  0.00000000E+00  0.00000000E+00  0.00000000E+00
  0.00000000E+00  0.00000000E+00  0.00000000E+00
