SiC Unit Cell                           
   1.00000000000000     
    13.2785138217903658    0.0261097018927601   -0.2069084309567042
     0.0273156971638576   13.3132322808969601    0.0249440631479475
    -0.2087183534399550    0.0248418843355937   13.1262417113908256
   C    Si   H 
    93    71    72
Direct
  0.0031095477103120  0.0017418737342100  0.0017632651342802
  0.1625055437357237  0.1637820011283838  0.0116690857112593
  0.1790120253113796 -0.0063752373070085  0.1812193552900787
  0.0054953460118232  0.1687301632338947  0.1744133364665977
  0.3365795253918216  0.0031232835291876  0.0054038321692378
  0.6696897039299606  0.0008593565937425  0.9925962857817050
  0.5107774030808635  0.1691146545631495 -0.0039936017525870
  0.8356059902720093  0.1685575822560957  0.9983217103749419
  0.5218779008909475  0.0055699115277175  0.1724811951597868
  0.8403526580826611  0.0043695247744578  0.1580582052692532
  0.6556519308019658  0.1570416501282971  0.1466203738047464
  0.9991846823379186  0.3329100686558693 -0.0019221435518870
 -0.0001956516455130  0.6664238554594570 -0.0015018616843200
  0.1693231162122674  0.4976507800103422 -0.0067166413355675
  0.1693664038621449  0.8348919074726563  0.0036223138849355
  0.1552817666119985  0.3455299266751589  0.1627298366315849
  0.1633787386357508  0.6598003767797384  0.1578543975867383
  0.9973963114283929  0.5015542729845311  0.1658253689090395
  0.0047161884155017  0.8343497805200255  0.1635553811671267
  0.3314819584088406  0.3277072400606275  0.0132548863394991
  0.3438715911575446  0.6636223743225717 -0.0015629015194892
  0.6572941593582031  0.3204668693393077 -0.0029641911720032
  0.6736241356223843  0.6684099594234902 -0.0033667428015534
  0.4923028371199248  0.5156370478340003 -0.0064675229053046
  0.5027680282596966  0.8401385951282319  0.0019421446152808
  0.8334133384975555  0.4975468592377183 -0.0025505100717371
  0.8371820349449055  0.8347103574858603  0.9924230479107877
  0.5114053763850741  0.6665525000993249  0.1582389069659760
  0.8418240904790115  0.3370653527929332  0.1623422445411048
  0.8409451648773518  0.6739849053181434  0.1581225263441930
  0.3255542595587839  0.4981271701697932  0.1657798375998921
  0.3491568419095294  0.8380349919276810  0.1605443094282315
  0.6622924534519810  0.4899142343305715  0.1526666615373575
  0.6830959490353747  0.8422992093663821  0.1543667350739387
  0.0030315952028829  0.9968109006618351  0.3321619139432679
  0.9878842358855828  0.0046623333165689  0.6532726674831519
  0.1618203318479760  0.1683031124472812  0.6896562827441507
  0.1650646371809057  0.0007797018919425  0.5054903532678202
  0.1588968317528661  0.9973733160400696  0.8368656011271622
 -0.0145224569096920  0.1477273123542694  0.5160654839110380
  0.9914756046936218  0.1666760474321914  0.8304945561480662
  0.3338504861118280 -0.0154475256447118  0.3330173535484831
  0.3249529970889854  0.9998435392791499  0.6692795322519913
  0.6780535744229934  0.0154129316415055  0.3209127951243896
  0.6557647885479592 -0.0002772468632352  0.6577079462091296
  0.8383460717980474  0.1464621560724964  0.3377702378596718
  0.4811676879034448 -0.0041733013323737  0.4830214170062264
  0.4923421312747085  0.0088825164007974  0.8303538464272183
  0.8359616874602722  0.0075251391816137  0.4875187278028121
  0.8302481605817499  0.9998395631815395  0.8283148826451313
  0.3054823013543497  0.1645174096472770  0.8425306957888025
  0.6663415462699842  0.1639618945523114  0.8314685347924964
  0.0035523557134718  0.3331004979742972  0.3477823675810909
  0.0059258711879509  0.3488713717593131  0.6608712507422257
  0.9968573295271373  0.6653018293226582  0.3315233011008620
  0.0006174808389864  0.6674004598221916  0.6596149469894210
  0.1615169080913766  0.5021455180599134  0.3289346700598644
  0.1580432413173564  0.8318621688972642  0.3463818822128074
  0.1573950941676582  0.8380077280562983  0.6715046658870917
  0.1656501370077827  0.3099894107868177  0.8372363916172875
  0.1364230415614904  0.6657013423386691  0.5164340162428432
  0.1605179620543696  0.6749821963126479  0.8398534175876892
  0.0043940279072160  0.5122928157816757  0.5222514629668147
  0.0087618873358399  0.4965510098278008  0.8322825076801901
  0.9952190420088708  0.8355675200595368  0.4984311629000724
  0.9962211169150681  0.8361243931780282  0.8305757248532259
  0.5100675544589612  0.8414779349819843  0.3320694044676835
  0.4891980170873107  0.8398074305490162  0.6747804222402639
  0.8445107962641275  0.4889266432249041  0.3464641180151895
  0.8610009929754158  0.4894873832245101  0.6630121576184819
  0.8416939096932986  0.8419904728592924  0.3182520818335733
  0.8343166175702992  0.8436737642594420  0.6537752796229770
  0.4896966882223164  0.6707002793678487  0.8620689323507548
  0.8322624200525481  0.3343256776196656  0.8319140927284107
  0.8363984636521099  0.6685053989591090  0.4947780076555034
  0.8434189030477396  0.6585708271797528  0.8313174614388054
  0.3171903804401376  0.8312430429145432  0.5106224480064019
  0.3292892690118310  0.8339980749406046  0.8349265926598513
  0.6791241955261477  0.4994124380917666  0.8290986274321784
  0.6651250988845288  0.8545176198561013  0.4916601958207978
  0.6543591769654634  0.8408668806757722  0.8354199202648852
  0.0659624083862043  0.5990910343944854  0.5841238277102551
  0.7699168853276880  0.0768098236330978  0.4015464556792174
  0.6096467970435310  0.2344748892134025  0.7566923416972153
  0.2317289537290330  0.6074402469811153  0.7822787249231509
  0.4043180204602089  0.0533208488116831  0.4055490516161881
  0.9421308636036118  0.4330747339911074  0.5957236808899311
  0.4239959141732503  0.5998579405229351  0.9312798724297717
  0.2307282584665471  0.2332294414455764  0.7712317302084435
  0.9162729060429378  0.0700247801158635  0.5683329993316873
  0.2574525920381780  0.0466461175035772  0.2607066731223658
  0.6002616033355012  0.0820222754347455  0.2286636821251014
  0.5891105494810863  0.2308736970667362  0.0654139976987547
  0.0883672207073557  0.0813082242473878  0.0960046936439207
  0.0852809900383303  0.2634230033061297  0.2522857341845202
  0.4370420805978236  0.0825279365605852  0.0819447087927725
  0.7534555526395852  0.0840038007969661  0.0751362311454462
  0.9208693341026828  0.2497655040651071  0.0835496085613949
  0.9224840641314866  0.0808745792199068  0.2477380357731072
  0.0785646698058340  0.4233804767792035  0.0779569401955350
  0.0846824010255425  0.7510990069981864  0.0812453838454519
  0.2517448163813776  0.5822336555502639  0.0775527869394250
  0.2547775975482132  0.9169945149944190  0.0876911243950251
  0.0806178904645136  0.5854770680644282  0.2466157912562260
  0.0861643970097039  0.9134762394590612  0.2529329864429033
  0.4124537428337990  0.4274331460433031  0.0805838587461231
  0.4246147862889683  0.7521682133728665  0.0815491230248339
  0.7494405194547638  0.4101357622078260  0.0772021466592684
  0.7576652551068614  0.7539851717075440  0.0754753177829783
  0.5877330886156267  0.5847424058189733  0.0757435456819940
  0.5911545753964641  0.9211813441514286  0.0806296085631550
  0.9158602484178083  0.5837652942838898  0.0809211047696516
  0.9200515682852143  0.9178059573923977  0.0789303195847005
  0.4281003285835875  0.9188543299529882  0.2474939243871466
  0.7585696281970808  0.9266808141414492  0.2398948255532959
  0.9211181831825805  0.4165089273829358  0.2530267446436916
  0.9215815822863259  0.7531116859038384  0.2441097874703540
  0.0726491546643884  0.0817316869466024  0.7516497739856461
  0.0718962771756233  0.2372395120478458  0.5953635702173963
  0.0777607604537196  0.2426068856567350  0.9213467418424233
  0.2394668360814288  0.0802297509594851  0.9269686129470635
  0.3913358220741560  0.0878151782505570  0.7594918884182955
  0.7361438786385953  0.0771486527447794  0.7489684812336829
  0.9172492715934361  0.2361200528601762  0.4201342570458021
  0.4006975622690884  0.2409628075448824  0.9250406264748195
  0.7496418613251988  0.2483148591091574  0.9126474112866353
  0.5835668494074923  0.0854311438344066  0.9115735217217606
  0.9137300293263417  0.0841312095753053  0.9147635001226820
  0.0931787210670982  0.4063225129041828  0.7560314262253925
  0.0724486748722859  0.7486678407587395  0.4196933251014632
  0.0782490046746438  0.7533543323170617  0.7502598430453019
  0.2457905022873776  0.9146214710359808  0.4215606380019593
  0.2434139560979630  0.9174878463882102  0.7530126458276140
  0.0834403740437328  0.5850899710688158  0.9168009450392423
  0.0771493606787912  0.9185966976490373  0.5831977317334074
  0.0814602805528211  0.9155260974777056  0.9184600386812282
  0.2278010487388142  0.7535940362121476  0.5854873456822869
  0.2509569602077082  0.7521178728048523  0.9212640054700312
  0.7630195995194234  0.4212713062717838  0.7423634411052097
  0.5854442244450294  0.9339850643240709  0.4055472660464675
  0.5743506051487181  0.9243323817868652  0.7475559078615337
  0.9201065538121546  0.5820022171219892  0.4230540973175616
  0.9278902890505349  0.5814181556724203  0.7464825297636469
  0.9166751943967909  0.9178920843853490  0.4118151785870708
  0.9130644226213208  0.9208062565787717  0.7442898229245879
  0.4059593587056240  0.9161729019070670  0.5839489474851689
  0.4156601914430557  0.9205067924979400  0.9173303006074702
  0.7555093587246723  0.5845539381170775  0.9130204774181326
  0.7506543803949428  0.9292716344558831  0.5736159260299903
  0.7499547431532801  0.9171229022969322  0.9117013241065157
  0.5839339648523367  0.7551413146409072  0.9238652304489360
  0.9175613343146851  0.4172370394500751  0.9142600169645514
  0.9139083550704628  0.7545680754513591  0.5794744180370180
  0.9180168892550722  0.7508208432343133  0.9118577378986346
  0.2382350667810222  0.2584666544635171  0.0926828669478996
  0.2416201504725357  0.4200159255646354  0.2470046033330748
  0.0719427092189108  0.0766185935045099  0.4298096336999471
  0.2377333492580194  0.0874157379490794  0.5971931628733762
  0.9210706428970339  0.2667178933591147  0.7467851202200964
  0.5658972534582650  0.0769108305141106  0.5685263460848433
  0.0871115158056124  0.4312466925168876  0.4281298788087757
  0.2457366705556218  0.3977264796367404  0.9206618204984385
  0.4213649639021917  0.7522358967258683  0.7627218043645358
  0.5819373923448002  0.4287584831523502  0.9120806072501171
  0.6914476969788688  0.2127561215013266  0.1966945769493872
  0.7952384498578288  0.2907531375840075  0.2113313502013716
  0.7860934804050530  0.1953521077944175  0.2944042702641942
  0.6091033976222463  0.4401638210534274  0.1908118587977389
  0.8125399325104459  0.4332924724582499  0.3987485467406521
  0.6403104014716781  0.2326060671799675  0.6798306305152222
  0.6974846699553487  0.3761198092518683  0.6605282563473822
  0.3085448017276933  0.6362789784205642  0.7796223592100947
  0.2951077529939700  0.6826123570417677  0.6363118090863189
  0.4045724510142876  0.6697104479487241  0.6884389889513443
  0.4670624399444875  0.6186392221898184  0.2076538603584220
  0.3712037418595048  0.5427568269788957  0.2200562160716777
  0.7801019797267504  0.7984487287553910  0.6949224490974202
  0.7934328140098983  0.6993247106626711  0.7771648135121170
  0.6926787867804772  0.7902539690093721  0.7831743491926052
  0.5302792165449004  0.6194073820945593  0.8121873166607120
  0.6291041303126709  0.5431386121259947  0.7767518747902369
  0.8107005223894265  0.5285875833596664  0.6082488785211243
  0.7825999667624395  0.6268933960564583  0.5401793743456093
  0.5342466556404433  0.7877383043729274  0.6296378578957192
  0.6146328691789817  0.8099895641685396  0.5379659231916435
  0.4162461679408555  0.1786000778524788  0.6994049600149980
  0.5288925861187638  0.2201622451545064  0.7496842991312326
  0.5000280316756729  0.1403707015756379  0.6272128854290447
  0.2943808410369877  0.1663458688160359  0.5419600272306411
  0.3567846566549907  0.1047683281588861  0.4482390889759274
  0.2805294643685595  0.2800096135356697  0.7243810948264680
  0.2162457636076189  0.7007521129171943  0.2081326588251112
  0.3105851630688391  0.7927950303779866  0.2175636924250690
  0.2094417081555859  0.7830253051086128  0.3051566145975920
  0.2168108187868914  0.5475920490294042  0.3726623206136371
  0.1885867048114902  0.6145201746398250  0.4789731241354216
  0.4669911652272118  0.8000953016660243  0.3882985270105300
  0.3625703362754272  0.7780953214045304  0.4668262373164014
  0.1804969279365358  0.2270440243225129  0.3013422647685208
  0.2144916606125872  0.0963839902542236  0.3096433671710020
  0.1241650377416563  0.1595941365801161  0.3820962270773559
  0.1385375295574195  0.2662877120988583  0.5123368328111243
  0.1744329942518466  0.3938634402288115  0.4908999110830631
  0.3064351597751132  0.3521815254936472  0.3134859789503311
  0.7918739654568155  0.6317101137787202  0.2085014957761525
  0.7031162635112351  0.5303434903497928  0.2130572964429573
  0.7802221072996871  0.5299864322995280  0.3126585339459612
  0.5628867594088088  0.7063294263965677  0.2093326364753282
  0.6432460745524134  0.7950611860918509  0.2076340198668211
  0.5583069442644158  0.7876627140427399  0.2955570739890525
  0.7883797469624932  0.7934975224066233  0.3561149115628247
  0.7898956620824298  0.7093112705754704  0.4389076992088276
  0.7029364516142301  0.8012104933756826  0.4432359070599690
  0.2874560294654191  0.2134468521337906  0.1833402398279979
  0.3029655424189701  0.0979047839540743  0.2167677180351745
  0.3951080804740141  0.1580804228649947  0.1504786079030329
  0.5454917571743929  0.2772970317079904  0.1166783584090341
  0.4832113933556555  0.3771687534957978  0.1544206511613559
  0.5565942551040567  0.1334944730641829  0.2757196061149954
  0.4480920127036446  0.1040254267408727  0.3573565164009884
  0.1768718026174551  0.4512124475446159  0.6990598761749570
  0.2098492702679684  0.5928362332267254  0.7036064351012893
  0.1167251221468381  0.5547937055700903  0.6335676376874980
  0.7783419708398890  0.1497629086178627  0.6793998708435818
  0.8585835623758584  0.2320571069097733  0.6598080181114931
  0.8645129279730850  0.1112377819179022  0.6149892194263692
  0.7239232910315945  0.1273979778252652  0.4463069615065748
  0.6209889518626925  0.1526697394761473  0.5076649875089664
  0.8364827000604127  0.2928539743730152  0.4729810706605244
  0.8966768539806356  0.3897362533065466  0.5406517351668463
  0.6147397454441712  0.3132867903702811  0.7799279243388076
  0.4388859847236870  0.3055778703659710  0.8441318197616138
  0.5132541948057597  0.4008855074764260  0.8264693995847063
  0.2410836807033795  0.5344920998960125  0.8187441891368697
  0.3200369508885982  0.4364747852814981  0.8473668583987090
  0.3796138388663394  0.5546901232834381  0.8774713847220940
 
  0.00000000E+00  0.00000000E+00  0.00000000E+00
  0.00000000E+00  0.00000000E+00  0.00000000E+00
  0.00000000E+00  0.00000000E+00  0.00000000E+00
  0.00000000E+00  0.00000000E+00  0.00000000E+00
  0.00000000E+00  0.00000000E+00  0.00000000E+00
  0.00000000E+00  0.00000000E+00  0.00000000E+00
  0.00000000E+00  0.00000000E+00  0.00000000E+00
  0.00000000E+00  0.00000000E+00  0.00000000E+00
  0.00000000E+00  0.00000000E+00  0.00000000E+00
  0.00000000E+00  0.00000000E+00  0.00000000E+00
  0.00000000E+00  0.00000000E+00  0.00000000E+00
  0.00000000E+00  0.00000000E+00  0.00000000E+00
  0.00000000E+00  0.00000000E+00  0.00000000E+00
  0.00000000E+00  0.00000000E+00  0.00000000E+00
  0.00000000E+00  0.00000000E+00  0.00000000E+00
  0.00000000E+00  0.00000000E+00  0.00000000E+00
  0.00000000E+00  0.00000000E+00  0.00000000E+00
  0.00000000E+00  0.00000000E+00  0.00000000E+00
  0.00000000E+00  0.00000000E+00  0.00000000E+00
  0.00000000E+00  0.00000000E+00  0.00000000E+00
  0.00000000E+00  0.00000000E+00  0.00000000E+00
  0.00000000E+00  0.00000000E+00  0.00000000E+00
  0.00000000E+00  0.00000000E+00  0.00000000E+00
  0.00000000E+00  0.00000000E+00  0.00000000E+00
  0.00000000E+00  0.00000000E+00  0.00000000E+00
  0.00000000E+00  0.00000000E+00  0.00000000E+00
  0.00000000E+00  0.00000000E+00  0.00000000E+00
  0.00000000E+00  0.00000000E+00  0.00000000E+00
  0.00000000E+00  0.00000000E+00  0.00000000E+00
  0.00000000E+00  0.00000000E+00  0.00000000E+00
  0.00000000E+00  0.00000000E+00  0.00000000E+00
  0.00000000E+00  0.00000000E+00  0.00000000E+00
  0.00000000E+00  0.00000000E+00  0.00000000E+00
  0.00000000E+00  0.00000000E+00  0.00000000E+00
  0.00000000E+00  0.00000000E+00  0.00000000E+00
  0.00000000E+00  0.00000000E+00  0.00000000E+00
  0.00000000E+00  0.00000000E+00  0.00000000E+00
  0.00000000E+00  0.00000000E+00  0.00000000E+00
  0.00000000E+00  0.00000000E+00  0.00000000E+00
  0.00000000E+00  0.00000000E+00  0.00000000E+00
  0.00000000E+00  0.00000000E+00  0.00000000E+00
  0.00000000E+00  0.00000000E+00  0.00000000E+00
  0.00000000E+00  0.00000000E+00  0.00000000E+00
  0.00000000E+00  0.00000000E+00  0.00000000E+00
  0.00000000E+00  0.00000000E+00  0.00000000E+00
  0.00000000E+00  0.00000000E+00  0.00000000E+00
  0.00000000E+00  0.00000000E+00  0.00000000E+00
  0.00000000E+00  0.00000000E+00  0.00000000E+00
  0.00000000E+00  0.00000000E+00  0.00000000E+00
  0.00000000E+00  0.00000000E+00  0.00000000E+00
  0.00000000E+00  0.00000000E+00  0.00000000E+00
  0.00000000E+00  0.00000000E+00  0.00000000E+00
  0.00000000E+00  0.00000000E+00  0.00000000E+00
  0.00000000E+00  0.00000000E+00  0.00000000E+00
  0.00000000E+00  0.00000000E+00  0.00000000E+00
  0.00000000E+00  0.00000000E+00  0.00000000E+00
  0.00000000E+00  0.00000000E+00  0.00000000E+00
  0.00000000E+00  0.00000000E+00  0.00000000E+00
  0.00000000E+00  0.00000000E+00  0.00000000E+00
  0.00000000E+00  0.00000000E+00  0.00000000E+00
  0.00000000E+00  0.00000000E+00  0.00000000E+00
  0.00000000E+00  0.00000000E+00  0.00000000E+00
  0.00000000E+00  0.00000000E+00  0.00000000E+00
  0.00000000E+00  0.00000000E+00  0.00000000E+00
  0.00000000E+00  0.00000000E+00  0.00000000E+00
  0.00000000E+00  0.00000000E+00  0.00000000E+00
  0.00000000E+00  0.00000000E+00  0.00000000E+00
  0.00000000E+00  0.00000000E+00  0.00000000E+00
  0.00000000E+00  0.00000000E+00  0.00000000E+00
  0.00000000E+00  0.00000000E+00  0.00000000E+00
  0.00000000E+00  0.00000000E+00  0.00000000E+00
  0.00000000E+00  0.00000000E+00  0.00000000E+00
  0.00000000E+00  0.00000000E+00  0.00000000E+00
  0.00000000E+00  0.00000000E+00  0.00000000E+00
  0.00000000E+00  0.00000000E+00  0.00000000E+00
  0.00000000E+00  0.00000000E+00  0.00000000E+00
  0.00000000E+00  0.00000000E+00  0.00000000E+00
  0.00000000E+00  0.00000000E+00  0.00000000E+00
  0.00000000E+00  0.00000000E+00  0.00000000E+00
  0.00000000E+00  0.00000000E+00  0.00000000E+00
  0.00000000E+00  0.00000000E+00  0.00000000E+00
  0.00000000E+00  0.00000000E+00  0.00000000E+00
  0.00000000E+00  0.00000000E+00  0.00000000E+00
  0.00000000E+00  0.00000000E+00  0.00000000E+00
  0.00000000E+00  0.00000000E+00  0.00000000E+00
  0.00000000E+00  0.00000000E+00  0.00000000E+00
  0.00000000E+00  0.00000000E+00  0.00000000E+00
  0.00000000E+00  0.00000000E+00  0.00000000E+00
  0.00000000E+00  0.00000000E+00  0.00000000E+00
  0.00000000E+00  0.00000000E+00  0.00000000E+00
  0.00000000E+00  0.00000000E+00  0.00000000E+00
  0.00000000E+00  0.00000000E+00  0.00000000E+00
  0.00000000E+00  0.00000000E+00  0.00000000E+00
  0.00000000E+00  0.00000000E+00  0.00000000E+00
  0.00000000E+00  0.00000000E+00  0.00000000E+00
  0.00000000E+00  0.00000000E+00  0.00000000E+00
  0.00000000E+00  0.00000000E+00  0.00000000E+00
  0.00000000E+00  0.00000000E+00  0.00000000E+00
  0.00000000E+00  0.00000000E+00  0.00000000E+00
  0.00000000E+00  0.00000000E+00  0.00000000E+00
  0.00000000E+00  0.00000000E+00  0.00000000E+00
  0.00000000E+00  0.00000000E+00  0.00000000E+00
  0.00000000E+00  0.00000000E+00  0.00000000E+00
  0.00000000E+00  0.00000000E+00  0.00000000E+00
  0.00000000E+00  0.00000000E+00  0.00000000E+00
  0.00000000E+00  0.00000000E+00  0.00000000E+00
  0.00000000E+00  0.00000000E+00  0.00000000E+00
  0.00000000E+00  0.00000000E+00  0.00000000E+00
  0.00000000E+00  0.00000000E+00  0.00000000E+00
  0.00000000E+00  0.00000000E+00  0.00000000E+00
  0.00000000E+00  0.00000000E+00  0.00000000E+00
  0.00000000E+00  0.00000000E+00  0.00000000E+00
  0.00000000E+00  0.00000000E+00  0.00000000E+00
  0.00000000E+00  0.00000000E+00  0.00000000E+00
  0.00000000E+00  0.00000000E+00  0.00000000E+00
  0.00000000E+00  0.00000000E+00  0.00000000E+00
  0.00000000E+00  0.00000000E+00  0.00000000E+00
  0.00000000E+00  0.00000000E+00  0.00000000E+00
  0.00000000E+00  0.00000000E+00  0.00000000E+00
  0.00000000E+00  0.00000000E+00  0.00000000E+00
  0.00000000E+00  0.00000000E+00  0.00000000E+00
  0.00000000E+00  0.00000000E+00  0.00000000E+00
  0.00000000E+00  0.00000000E+00  0.00000000E+00
  0.00000000E+00  0.00000000E+00  0.00000000E+00
  0.00000000E+00  0.00000000E+00  0.00000000E+00
  0.00000000E+00  0.00000000E+00  0.00000000E+00
  0.00000000E+00  0.00000000E+00  0.00000000E+00
  0.00000000E+00  0.00000000E+00  0.00000000E+00
  0.00000000E+00  0.00000000E+00  0.00000000E+00
  0.00000000E+00  0.00000000E+00  0.00000000E+00
  0.00000000E+00  0.00000000E+00  0.00000000E+00
  0.00000000E+00  0.00000000E+00  0.00000000E+00
  0.00000000E+00  0.00000000E+00  0.00000000E+00
  0.00000000E+00  0.00000000E+00  0.00000000E+00
  0.00000000E+00  0.00000000E+00  0.00000000E+00
  0.00000000E+00  0.00000000E+00  0.00000000E+00
  0.00000000E+00  0.00000000E+00  0.00000000E+00
  0.00000000E+00  0.00000000E+00  0.00000000E+00
  0.00000000E+00  0.00000000E+00  0.00000000E+00
  0.00000000E+00  0.00000000E+00  0.00000000E+00
  0.00000000E+00  0.00000000E+00  0.00000000E+00
  0.00000000E+00  0.00000000E+00  0.00000000E+00
  0.00000000E+00  0.00000000E+00  0.00000000E+00
  0.00000000E+00  0.00000000E+00  0.00000000E+00
  0.00000000E+00  0.00000000E+00  0.00000000E+00
  0.00000000E+00  0.00000000E+00  0.00000000E+00
  0.00000000E+00  0.00000000E+00  0.00000000E+00
  0.00000000E+00  0.00000000E+00  0.00000000E+00
  0.00000000E+00  0.00000000E+00  0.00000000E+00
  0.00000000E+00  0.00000000E+00  0.00000000E+00
  0.00000000E+00  0.00000000E+00  0.00000000E+00
  0.00000000E+00  0.00000000E+00  0.00000000E+00
  0.00000000E+00  0.00000000E+00  0.00000000E+00
  0.00000000E+00  0.00000000E+00  0.00000000E+00
  0.00000000E+00  0.00000000E+00  0.00000000E+00
  0.00000000E+00  0.00000000E+00  0.00000000E+00
  0.00000000E+00  0.00000000E+00  0.00000000E+00
  0.00000000E+00  0.00000000E+00  0.00000000E+00
  0.00000000E+00  0.00000000E+00  0.00000000E+00
  0.00000000E+00  0.00000000E+00  0.00000000E+00
  0.00000000E+00  0.00000000E+00  0.00000000E+00
  0.00000000E+00  0.00000000E+00  0.00000000E+00
  0.00000000E+00  0.00000000E+00  0.00000000E+00
  0.00000000E+00  0.00000000E+00  0.00000000E+00
  0.00000000E+00  0.00000000E+00  0.00000000E+00
  0.00000000E+00  0.00000000E+00  0.00000000E+00
  0.00000000E+00  0.00000000E+00  0.00000000E+00
  0.00000000E+00  0.00000000E+00  0.00000000E+00
  0.00000000E+00  0.00000000E+00  0.00000000E+00
  0.00000000E+00  0.00000000E+00  0.00000000E+00
  0.00000000E+00  0.00000000E+00  0.00000000E+00
  0.00000000E+00  0.00000000E+00  0.00000000E+00
  0.00000000E+00  0.00000000E+00  0.00000000E+00
  0.00000000E+00  0.00000000E+00  0.00000000E+00
  0.00000000E+00  0.00000000E+00  0.00000000E+00
  0.00000000E+00  0.00000000E+00  0.00000000E+00
  0.00000000E+00  0.00000000E+00  0.00000000E+00
  0.00000000E+00  0.00000000E+00  0.00000000E+00
  0.00000000E+00  0.00000000E+00  0.00000000E+00
  0.00000000E+00  0.00000000E+00  0.00000000E+00
  0.00000000E+00  0.00000000E+00  0.00000000E+00
  0.00000000E+00  0.00000000E+00  0.00000000E+00
  0.00000000E+00  0.00000000E+00  0.00000000E+00
  0.00000000E+00  0.00000000E+00  0.00000000E+00
  0.00000000E+00  0.00000000E+00  0.00000000E+00
  0.00000000E+00  0.00000000E+00  0.00000000E+00
  0.00000000E+00  0.00000000E+00  0.00000000E+00
  0.00000000E+00  0.00000000E+00  0.00000000E+00
  0.00000000E+00  0.00000000E+00  0.00000000E+00
  0.00000000E+00  0.00000000E+00  0.00000000E+00
  0.00000000E+00  0.00000000E+00  0.00000000E+00
  0.00000000E+00  0.00000000E+00  0.00000000E+00
  0.00000000E+00  0.00000000E+00  0.00000000E+00
  0.00000000E+00  0.00000000E+00  0.00000000E+00
  0.00000000E+00  0.00000000E+00  0.00000000E+00
  0.00000000E+00  0.00000000E+00  0.00000000E+00
  0.00000000E+00  0.00000000E+00  0.00000000E+00
  0.00000000E+00  0.00000000E+00  0.00000000E+00
  0.00000000E+00  0.00000000E+00  0.00000000E+00
  0.00000000E+00  0.00000000E+00  0.00000000E+00
  0.00000000E+00  0.00000000E+00  0.00000000E+00
  0.00000000E+00  0.00000000E+00  0.00000000E+00
  0.00000000E+00  0.00000000E+00  0.00000000E+00
  0.00000000E+00  0.00000000E+00  0.00000000E+00
  0.00000000E+00  0.00000000E+00  0.00000000E+00
  0.00000000E+00  0.00000000E+00  0.00000000E+00
  0.00000000E+00  0.00000000E+00  0.00000000E+00
  0.00000000E+00  0.00000000E+00  0.00000000E+00
  0.00000000E+00  0.00000000E+00  0.00000000E+00
  0.00000000E+00  0.00000000E+00  0.00000000E+00
  0.00000000E+00  0.00000000E+00  0.00000000E+00
  0.00000000E+00  0.00000000E+00  0.00000000E+00
  0.00000000E+00  0.00000000E+00  0.00000000E+00
  0.00000000E+00  0.00000000E+00  0.00000000E+00
  0.00000000E+00  0.00000000E+00  0.00000000E+00
  0.00000000E+00  0.00000000E+00  0.00000000E+00
  0.00000000E+00  0.00000000E+00  0.00000000E+00
  0.00000000E+00  0.00000000E+00  0.00000000E+00
  0.00000000E+00  0.00000000E+00  0.00000000E+00
  0.00000000E+00  0.00000000E+00  0.00000000E+00
  0.00000000E+00  0.00000000E+00  0.00000000E+00
  0.00000000E+00  0.00000000E+00  0.00000000E+00
  0.00000000E+00  0.00000000E+00  0.00000000E+00
  0.00000000E+00  0.00000000E+00  0.00000000E+00
  0.00000000E+00  0.00000000E+00  0.00000000E+00
  0.00000000E+00  0.00000000E+00  0.00000000E+00
  0.00000000E+00  0.00000000E+00  0.00000000E+00
  0.00000000E+00  0.00000000E+00  0.00000000E+00
  0.00000000E+00  0.00000000E+00  0.00000000E+00
  0.00000000E+00  0.00000000E+00  0.00000000E+00
  0.00000000E+00  0.00000000E+00  0.00000000E+00
  0.00000000E+00  0.00000000E+00  0.00000000E+00
  0.00000000E+00  0.00000000E+00  0.00000000E+00
  0.00000000E+00  0.00000000E+00  0.00000000E+00
  0.00000000E+00  0.00000000E+00  0.00000000E+00
  0.00000000E+00  0.00000000E+00  0.00000000E+00
