SiC Unit Cell                           
   1.00000000000000     
    13.8474148567770605    0.0940737133134840   -0.0241804053179423
     0.0940914673236519   13.8510582730030301   -0.0305409150469190
    -0.0241319262618520   -0.0309967350698883   13.8930967197130855
   C    Si   H 
    67    93    76
Direct
  0.0015022443473052  0.9969604694222990  0.0064281805983101
  0.1636619859964525  0.1639127784416440  0.0135288011360921
  0.1618356938142591  0.9947427703692880  0.1698553609913543
  0.0034403416275716  0.1631309571701324  0.1660034039839337
  0.3339123908890687  0.0011978039590754  0.0090346066079670
  0.6696702301135381 -0.0014069856095988  0.0010815036738451
  0.5057347319438841  0.1657803233925919 -0.0010617430550797
  0.8341526631064099  0.1600731269567751  0.0000085984703042
  0.5065032454481933  0.9979669576667286  0.1648638768715437
  0.8406501331385522  0.0021661317768119  0.1602689045092925
  0.6683193435886796  0.1494658424000615  0.1479718854567273
  0.9911981363438312  0.3357091619900185  0.0080271607518179
  0.1599334065399645  0.4973210320112453  0.0005320886040654
  0.1719897347674457  0.8381436708200999  0.0053981476497391
  0.1488780390809832  0.3439469910250096  0.1546112811903212
  0.1609635247193036  0.6626604777428939  0.1607915902849979
 -0.0078031860206369  0.5023670455823013  0.1673948048570527
  0.0034601104726479  0.8367459096321809  0.1644308646959259
  0.3261396230167269  0.3322895010397907  0.0043377216083790
  0.3258324124103362  0.6680772457254360  0.0039983200779506
  0.6627165587426441  0.3295344278504901  0.9936593692143578
  0.6668001094449407  0.6721338271657572  0.0100034269343057
  0.4924823013726442  0.5084156529756507  0.0161936999421293
  0.4962575817337019  0.8352743160421333  0.0115846746811506
  0.8261824820585122  0.5000490620505259 -0.0016917352593070
  0.8343957852518170  0.8380929855808099  0.0076135659169777
  0.4959787762395803  0.6707731285100507  0.1566478967797351
  0.8336670512813057  0.6724428344600285  0.1586334349843345
  0.3090433276978412  0.4996675198946304  0.1535770507432140
  0.3427040555230125  0.8420975803401909  0.1630135641330140
  0.6554087583438150  0.4988946513969264  0.1483046839175141
  0.6749865785697211  0.8474030969808430  0.1529417795462624
  0.0000883681825506 -0.0046807322436040  0.3315014641783950
  0.1681590982220738  0.9848752903895539  0.4905876554503532
  0.1749388642643741  0.9926141881913196  0.8522680642959811
  0.0057507372052036  0.1642754835818992  0.4854425290503316
  0.3321472340586017  0.9750903892421929  0.3386070140815112
  0.3304162295484922 -0.0062085860573660  0.6758482650256225
  0.6695561597213796  0.0100592685689703  0.3252848247278798
  0.6758504502847510  0.0063691918582850  0.6592344292899578
  0.8533827487757042  0.1508604690945859  0.3253756923534310
  0.4994688568695518  0.9889726285590023  0.5077042283958118
  0.8392615938176675  0.0009842473369632  0.4897774452407505
  0.8291022546806820  0.9907591821265973  0.8440809227333226
  0.3152228243564255  0.1603148462398234  0.8557185715475533
  0.6820619549583310  0.1638189587621463  0.8426652735536853
  0.0058142323513827  0.3376409800469448  0.3341891724040685
  0.0061745019944177  0.3437601854229453  0.6699148025416449
  0.0014323390965378  0.6669535225430193  0.3214316592116225
 -0.0079224299591049  0.6726115442705575  0.6780543103482746
  0.1538954445448416  0.5037740934585786  0.3093001187541924
  0.1496544216083088  0.8396996079935430  0.3258090810609136
  0.1536336138187825  0.3243583723688543  0.8581282417023027
  0.1568688876755978  0.6716000944822869  0.8403803592391329
  0.0212142997933778  0.5141278792347942  0.4955882065448975
  0.0022300520572597  0.4938515995370143  0.8348743790254999
  0.0029733988811498  0.8276042744483717  0.4916673590849193
  0.9931926867280534  0.8375208567212730  0.8442576129584956
  0.5082172132426304  0.8496560793734439  0.3365218244764692
  0.4993519846615947  0.8379151216464217  0.6787132959335433
  0.8405567585013607  0.8458017266806626  0.6572664906973836
  0.4935181091580518  0.6788548376939040  0.8599196452199971
  0.8388750305574356  0.3338603429514734  0.8463726572368915
  0.8627444695072165  0.6778042417575595  0.5073534153435851
  0.8444706751418967  0.6671871034538296  0.8482509791246984
  0.3345628600748398  0.8304903994191848  0.8470361192243596
  0.6717486455889183  0.8604980777516499  0.5005938333712348
  0.0848925709442920  0.0812466607528588  0.0896187004453740
  0.2349546917147411  0.2619687673573196  0.0842107164638159
  0.0762652802714400  0.2635886748699486  0.2372224817706118
  0.2614214129550426  0.0498047707325187  0.2489478907092990
  0.4315864633328748  0.0782699194558120  0.0797358688743228
  0.7565522585840591  0.0776306900395784  0.0781573363189927
  0.5933309019303358  0.2389674193715666  0.0752317006395052
  0.9177444097304465  0.2358068544801286  0.0806916016542011
  0.5888263385783196  0.0832179767885539  0.2373465868315645
  0.9250157427654598  0.0767292922706579  0.2430331345677586
  0.0696812240948567  0.4235868752180570  0.0810259628557208
  0.0962408743282985  0.7626262099613610  0.0923395564409961
  0.2381671420735875  0.5848242873794172  0.0763751094586255
  0.2530269009076732  0.9200482116467000  0.0874529375253712
  0.0757895040010840  0.5865948624187389  0.2378658664072118
  0.0768414132143447  0.9180464964118359  0.2464754864767563
  0.2299944335763218  0.4221591059537240  0.2311735010570002
  0.3992630959271911  0.4268931076119599  0.0820729412659190
  0.4123756738232778  0.7531934280105097  0.0844849851366245
  0.7356744202549760  0.4222135446981091  0.0668760059644262
  0.7522649860927545  0.7565783836419520  0.0826546855064847
  0.5793976436243302  0.5892718437290033  0.0845657300365461
  0.5840558483854832  0.9194686751106993  0.0809722620319881
  0.8997378161355603  0.5725216382862601  0.0917057713715650
  0.9200314827881301  0.9151568920903882  0.0852583902366668
  0.4249511332924788  0.9176761897801536  0.2476145221410934
  0.7459036167137600  0.9330620573898368  0.2341267578294659
  0.9265388124816776  0.4219378156560354  0.2564969863082504
  0.9271443108757070  0.7432939140885100  0.2318215733686362
  0.0834068310072957  0.0683230898362719  0.4177145852060922
  0.1122656270675483  0.0719179257851314  0.7599735771821464
  0.2506010609004670  0.2591091730343641  0.7869352305494561
  0.0642592054557767  0.2511312179531826  0.5798294134596648
  0.0790040505451234  0.2499522180945061  0.9378656009932972
  0.2536049430205528  0.0500455123880126  0.5763370968802243
  0.2453192714532077  0.0796052121198584  0.9340579540430709
  0.4200790563072023  0.0502813925082808  0.4132783140628218
  0.3823705145954093  0.0982764383465069  0.7508594652282369
  0.7659864903605668  0.0785994248343095  0.3998309407161862
  0.7490513652775134  0.0710681094942252  0.7637806855245940
  0.5991776242455208  0.2308048171323224  0.7581378356481302
  0.9282996735105882  0.2388811809735762  0.3988305934037266
  0.9127024635087190  0.2778951348217538  0.7436404616452708
  0.4025444712090905  0.2359723210856063  0.9307757179866871
  0.7571246049914390  0.2482458765081532  0.9196471260378396
  0.5759017174926256  0.0719133715222991  0.5844900545396011
  0.5971757824576517  0.0915317964613360  0.9248551348713360
  0.9177939043991308  0.0888436037349385  0.5559890120140238
  0.9089733587461337  0.0695518374005675  0.9251827883989141
  0.0908279196573744  0.4310103353522826  0.4033895898254733
  0.0844428159535592  0.4016455780011477  0.7673169422033859
  0.0746159289570053  0.7543651501890057  0.3977398048771748
  0.0641940622081789  0.7462279330594378  0.7688764022570573
  0.2494389213912268  0.6392680221896646  0.7473650229496248
  0.2395066057943962  0.9027969801054327  0.4038872963412782
  0.2630644423190977  0.9196870604915615  0.7714312058269711
  0.0739596962517324  0.5912998245119699  0.5980026590613811
  0.0900731108933222  0.5722276057147612  0.9087851034511951
  0.0966242344374311  0.8947070024942493  0.5600732319135948
  0.0837079354911569  0.9157205376146865  0.9247237523240858
  0.2346558788443382  0.4066239755668669  0.9285653341786786
  0.2467188336244211  0.7510268178309825  0.9230294543291823
  0.4284866107264819  0.7605851465973571  0.7702800483725647
  0.7544741947737031  0.3949151537330710  0.7600816840449036
  0.5885937995265264  0.9296857934151962  0.4142461302423825
  0.5926271827436325  0.9210891348953355  0.7288582577720786
  0.9348658540754951  0.5976511834305204  0.4236901189817505
  0.9215341716188583  0.5886020991868648  0.7637539112998668
  0.9225840423400076  0.9165483084134847  0.4201233272462851
  0.9075939317622607  0.9109850243173370  0.7617887043126675
  0.4195353147773609  0.5917560547254744  0.9313813721322056
  0.4224151266624591  0.9174838851824252  0.6005706759003753
  0.4101511899105807  0.9104514508390152  0.9317800121630934
  0.7550492178865771  0.5971939080309544  0.9257660411771195
  0.7606445984209151  0.9306060396093798  0.5776510687430110
  0.7566591701806308  0.9169322635119026  0.9283645254296706
  0.5685507863376108  0.4230320921988405  0.9374933462743693
  0.5751114058258846  0.7502618911372173  0.9376797649043218
  0.9484420993630034  0.4293139390662601  0.5759364757774555
  0.9146058916671823  0.4179875820711703  0.9223148059275024
  0.9270118207157139  0.7603842585630097  0.5886165367122697
  0.9089940996163551  0.7634642435252788  0.9196923573293693
  0.0084213444276662 -0.0068234494951327  0.6636565606870568
  0.6555504929456297  0.5070426487518644  0.8264885367415449
  0.8204010112122992  0.3325205726482072  0.1738608848791124
  0.8198175074185809  0.4998468057271874  0.3609111127144999
  0.8250704847099424  0.5006987315830276  0.6605196924685428
  0.1881085961565882  0.1775246764813409  0.6575792026534636
  0.8245489896170783  0.8258172225976116  0.3252226572289704
  0.9954189138141935  0.1623387213499250  0.8275346436494122
  0.0005595523418822  0.6646865936560999  0.0064470522048265
  0.6695861598737618  0.8211409182394739  0.8284512638807784
  0.4972646697851125  0.0076738483674277  0.8291173242548340
  0.7069094247894920  0.1981831496392847  0.1970298452162177
  0.7467358125603480  0.3076099042084972  0.2480272903491983
  0.8038711287162859  0.1985530708556212  0.2853349277129152
  0.6087439071409665  0.4482500546646593  0.1871801296644960
  0.7788190984204533  0.4290917964499759  0.4299210020318189
  0.6293557647416322  0.2194459667330495  0.6558730070685036
  0.7092527555296309  0.3204672168910012  0.6977478739807739
  0.2477248282455272  0.7164347806405854  0.6735205227567390
  0.3993691642205536  0.6943782003416290  0.6899600308941390
  0.4539839562255479  0.6238028734910497  0.2041322454658516
  0.3522240951716614  0.5407386286352825  0.2063893633011283
  0.7871271194055016  0.7936291510145399  0.6839373348631808
  0.7983766927096091  0.6994603358366543  0.7922767022687099
  0.6914528309210306  0.7365119540426338  0.7642648151487670
  0.5400896225914922  0.6342586735558881  0.8131473064082351
  0.6023972780783019  0.5498572407164897  0.7426215002639281
  0.7411752120055604  0.5509784411285001  0.6135012448147014
  0.8131086562323703  0.6303600189142190  0.5453758674195329
  0.5292951853902892  0.7797436754167909  0.6323304072728739
  0.6223656632155941  0.8245504254396950  0.5505184855162999
  0.3910188565034117  0.1811220636985348  0.6820956357053571
  0.5068771870450671  0.1807395099103547  0.7726033897723366
  0.5060806456851978  0.1075856000259071  0.6564777245162398
  0.3296923160427831  0.0873514269887617  0.5085130841237607
  0.4079617977681204  0.1579850501617235  0.4105056406412893
  0.3227432610118179  0.3335054103280828  0.7582638284768624
  0.2163123873550875  0.6849037764126363  0.2138739836726137
  0.2998774329714970  0.7984420111483952  0.2128631827697298
  0.1938281914111336  0.7899266739515357  0.2820954839017779
  0.2047666104885748  0.5477297620929246  0.3523546776791546
  0.4603659940924535  0.8114289429790291  0.3867931580054785
  0.1535136964505933  0.2171501048834882  0.2937275126759880
  0.2636590889848078  0.1530296831693171  0.2753876796885655
  0.1552842330107525  0.1144970746624831  0.3545035884385480
  0.1145513286080129  0.3191713781094570  0.5169652730516705
  0.1803772904168879  0.3883383878685473  0.4465070929982138
  0.2933956228366912  0.3589158562670920  0.2928687881676721
  0.7858360485497123  0.6452528965424904  0.2157706085422463
  0.7039334433640175  0.5309764143195377  0.2015968609031830
  0.7371828622706006  0.5584100861582020  0.3228975890696075
  0.5377586588992337  0.7176211768189265  0.2043434309744856
  0.6349658436754990  0.8043503496413850  0.2053731016734653
  0.5543732394338426  0.7935700915883297  0.3039877354202999
  0.7509958350619383  0.7525843578784999  0.3515252120026029
  0.8164605811987616  0.7196859641225096  0.4584749467210424
  0.7092616929323504  0.8018035699207957  0.4627438545637518
  0.2910225326203272  0.2205739692732085  0.1644383285816220
  0.3347478173566773  0.0414171174318789  0.1721581886019816
  0.3915133006832751  0.1591784068007050  0.1373954423508900
  0.5489397938383426  0.2962311042268384  0.1539567522635572
  0.4507232267585533  0.3721753352657534  0.1581571677865335
  0.5364836231797898  0.1685962888835598  0.2799552489624090
  0.4975171631085861  0.0419360687263126  0.3368989493185978
  0.1754710740092431  0.4384261160689239  0.7246385919487318
  0.2593158470678663  0.5433889961267989  0.6996626283939575
  0.1057738967898722  0.5180486540920217  0.6677963277605864
  0.8220113557355976  0.1252061050620911  0.7107767411388038
  0.8377486205281868  0.2549085321278151  0.6711722354502141
  0.8505139131746708  0.1640858470542332  0.5924005259862254
  0.7165443986174433  0.1541244998271029  0.4584406760790871
  0.6037346535586984  0.1560198530072813  0.5257442193577136
  0.8430890240050545  0.2823348986582515  0.4483571185957005
  0.9074464840100388  0.3577738855957483  0.5095595573469267
  0.5742066525000734  0.3331876784464585  0.7777093336632765
  0.4432810430045262  0.2859336843937803  0.8482983416958840
  0.4915931517923734  0.3784876645937311  0.8816033267319304
  0.3350313104061987  0.6426790644064050  0.8110437684396427
  0.2795660290988851  0.4631634499246458  0.8511763317759713
  0.3852106662689245  0.5206123071908766  0.8601711098313441
  0.1138402262499209  0.8077993644812043  0.7010460188429272
  0.2039108679336276  0.8606434130462779  0.7085346037808916
  0.1725605778390606  0.8216160119326128  0.5850022033258080
  0.1481618726768819  0.6935313279536163  0.4477658485375062
  0.1614791949195340  0.6440671238780171  0.5701111312505115
  0.2829166589449444  0.8181813211923676  0.4541261568949793
  0.3585379923604459  0.8539539016804588  0.5440053180733625
 
  0.00000000E+00  0.00000000E+00  0.00000000E+00
  0.00000000E+00  0.00000000E+00  0.00000000E+00
  0.00000000E+00  0.00000000E+00  0.00000000E+00
  0.00000000E+00  0.00000000E+00  0.00000000E+00
  0.00000000E+00  0.00000000E+00  0.00000000E+00
  0.00000000E+00  0.00000000E+00  0.00000000E+00
  0.00000000E+00  0.00000000E+00  0.00000000E+00
  0.00000000E+00  0.00000000E+00  0.00000000E+00
  0.00000000E+00  0.00000000E+00  0.00000000E+00
  0.00000000E+00  0.00000000E+00  0.00000000E+00
  0.00000000E+00  0.00000000E+00  0.00000000E+00
  0.00000000E+00  0.00000000E+00  0.00000000E+00
  0.00000000E+00  0.00000000E+00  0.00000000E+00
  0.00000000E+00  0.00000000E+00  0.00000000E+00
  0.00000000E+00  0.00000000E+00  0.00000000E+00
  0.00000000E+00  0.00000000E+00  0.00000000E+00
  0.00000000E+00  0.00000000E+00  0.00000000E+00
  0.00000000E+00  0.00000000E+00  0.00000000E+00
  0.00000000E+00  0.00000000E+00  0.00000000E+00
  0.00000000E+00  0.00000000E+00  0.00000000E+00
  0.00000000E+00  0.00000000E+00  0.00000000E+00
  0.00000000E+00  0.00000000E+00  0.00000000E+00
  0.00000000E+00  0.00000000E+00  0.00000000E+00
  0.00000000E+00  0.00000000E+00  0.00000000E+00
  0.00000000E+00  0.00000000E+00  0.00000000E+00
  0.00000000E+00  0.00000000E+00  0.00000000E+00
  0.00000000E+00  0.00000000E+00  0.00000000E+00
  0.00000000E+00  0.00000000E+00  0.00000000E+00
  0.00000000E+00  0.00000000E+00  0.00000000E+00
  0.00000000E+00  0.00000000E+00  0.00000000E+00
  0.00000000E+00  0.00000000E+00  0.00000000E+00
  0.00000000E+00  0.00000000E+00  0.00000000E+00
  0.00000000E+00  0.00000000E+00  0.00000000E+00
  0.00000000E+00  0.00000000E+00  0.00000000E+00
  0.00000000E+00  0.00000000E+00  0.00000000E+00
  0.00000000E+00  0.00000000E+00  0.00000000E+00
  0.00000000E+00  0.00000000E+00  0.00000000E+00
  0.00000000E+00  0.00000000E+00  0.00000000E+00
  0.00000000E+00  0.00000000E+00  0.00000000E+00
  0.00000000E+00  0.00000000E+00  0.00000000E+00
  0.00000000E+00  0.00000000E+00  0.00000000E+00
  0.00000000E+00  0.00000000E+00  0.00000000E+00
  0.00000000E+00  0.00000000E+00  0.00000000E+00
  0.00000000E+00  0.00000000E+00  0.00000000E+00
  0.00000000E+00  0.00000000E+00  0.00000000E+00
  0.00000000E+00  0.00000000E+00  0.00000000E+00
  0.00000000E+00  0.00000000E+00  0.00000000E+00
  0.00000000E+00  0.00000000E+00  0.00000000E+00
  0.00000000E+00  0.00000000E+00  0.00000000E+00
  0.00000000E+00  0.00000000E+00  0.00000000E+00
  0.00000000E+00  0.00000000E+00  0.00000000E+00
  0.00000000E+00  0.00000000E+00  0.00000000E+00
  0.00000000E+00  0.00000000E+00  0.00000000E+00
  0.00000000E+00  0.00000000E+00  0.00000000E+00
  0.00000000E+00  0.00000000E+00  0.00000000E+00
  0.00000000E+00  0.00000000E+00  0.00000000E+00
  0.00000000E+00  0.00000000E+00  0.00000000E+00
  0.00000000E+00  0.00000000E+00  0.00000000E+00
  0.00000000E+00  0.00000000E+00  0.00000000E+00
  0.00000000E+00  0.00000000E+00  0.00000000E+00
  0.00000000E+00  0.00000000E+00  0.00000000E+00
  0.00000000E+00  0.00000000E+00  0.00000000E+00
  0.00000000E+00  0.00000000E+00  0.00000000E+00
  0.00000000E+00  0.00000000E+00  0.00000000E+00
  0.00000000E+00  0.00000000E+00  0.00000000E+00
  0.00000000E+00  0.00000000E+00  0.00000000E+00
  0.00000000E+00  0.00000000E+00  0.00000000E+00
  0.00000000E+00  0.00000000E+00  0.00000000E+00
  0.00000000E+00  0.00000000E+00  0.00000000E+00
  0.00000000E+00  0.00000000E+00  0.00000000E+00
  0.00000000E+00  0.00000000E+00  0.00000000E+00
  0.00000000E+00  0.00000000E+00  0.00000000E+00
  0.00000000E+00  0.00000000E+00  0.00000000E+00
  0.00000000E+00  0.00000000E+00  0.00000000E+00
  0.00000000E+00  0.00000000E+00  0.00000000E+00
  0.00000000E+00  0.00000000E+00  0.00000000E+00
  0.00000000E+00  0.00000000E+00  0.00000000E+00
  0.00000000E+00  0.00000000E+00  0.00000000E+00
  0.00000000E+00  0.00000000E+00  0.00000000E+00
  0.00000000E+00  0.00000000E+00  0.00000000E+00
  0.00000000E+00  0.00000000E+00  0.00000000E+00
  0.00000000E+00  0.00000000E+00  0.00000000E+00
  0.00000000E+00  0.00000000E+00  0.00000000E+00
  0.00000000E+00  0.00000000E+00  0.00000000E+00
  0.00000000E+00  0.00000000E+00  0.00000000E+00
  0.00000000E+00  0.00000000E+00  0.00000000E+00
  0.00000000E+00  0.00000000E+00  0.00000000E+00
  0.00000000E+00  0.00000000E+00  0.00000000E+00
  0.00000000E+00  0.00000000E+00  0.00000000E+00
  0.00000000E+00  0.00000000E+00  0.00000000E+00
  0.00000000E+00  0.00000000E+00  0.00000000E+00
  0.00000000E+00  0.00000000E+00  0.00000000E+00
  0.00000000E+00  0.00000000E+00  0.00000000E+00
  0.00000000E+00  0.00000000E+00  0.00000000E+00
  0.00000000E+00  0.00000000E+00  0.00000000E+00
  0.00000000E+00  0.00000000E+00  0.00000000E+00
  0.00000000E+00  0.00000000E+00  0.00000000E+00
  0.00000000E+00  0.00000000E+00  0.00000000E+00
  0.00000000E+00  0.00000000E+00  0.00000000E+00
  0.00000000E+00  0.00000000E+00  0.00000000E+00
  0.00000000E+00  0.00000000E+00  0.00000000E+00
  0.00000000E+00  0.00000000E+00  0.00000000E+00
  0.00000000E+00  0.00000000E+00  0.00000000E+00
  0.00000000E+00  0.00000000E+00  0.00000000E+00
  0.00000000E+00  0.00000000E+00  0.00000000E+00
  0.00000000E+00  0.00000000E+00  0.00000000E+00
  0.00000000E+00  0.00000000E+00  0.00000000E+00
  0.00000000E+00  0.00000000E+00  0.00000000E+00
  0.00000000E+00  0.00000000E+00  0.00000000E+00
  0.00000000E+00  0.00000000E+00  0.00000000E+00
  0.00000000E+00  0.00000000E+00  0.00000000E+00
  0.00000000E+00  0.00000000E+00  0.00000000E+00
  0.00000000E+00  0.00000000E+00  0.00000000E+00
  0.00000000E+00  0.00000000E+00  0.00000000E+00
  0.00000000E+00  0.00000000E+00  0.00000000E+00
  0.00000000E+00  0.00000000E+00  0.00000000E+00
  0.00000000E+00  0.00000000E+00  0.00000000E+00
  0.00000000E+00  0.00000000E+00  0.00000000E+00
  0.00000000E+00  0.00000000E+00  0.00000000E+00
  0.00000000E+00  0.00000000E+00  0.00000000E+00
  0.00000000E+00  0.00000000E+00  0.00000000E+00
  0.00000000E+00  0.00000000E+00  0.00000000E+00
  0.00000000E+00  0.00000000E+00  0.00000000E+00
  0.00000000E+00  0.00000000E+00  0.00000000E+00
  0.00000000E+00  0.00000000E+00  0.00000000E+00
  0.00000000E+00  0.00000000E+00  0.00000000E+00
  0.00000000E+00  0.00000000E+00  0.00000000E+00
  0.00000000E+00  0.00000000E+00  0.00000000E+00
  0.00000000E+00  0.00000000E+00  0.00000000E+00
  0.00000000E+00  0.00000000E+00  0.00000000E+00
  0.00000000E+00  0.00000000E+00  0.00000000E+00
  0.00000000E+00  0.00000000E+00  0.00000000E+00
  0.00000000E+00  0.00000000E+00  0.00000000E+00
  0.00000000E+00  0.00000000E+00  0.00000000E+00
  0.00000000E+00  0.00000000E+00  0.00000000E+00
  0.00000000E+00  0.00000000E+00  0.00000000E+00
  0.00000000E+00  0.00000000E+00  0.00000000E+00
  0.00000000E+00  0.00000000E+00  0.00000000E+00
  0.00000000E+00  0.00000000E+00  0.00000000E+00
  0.00000000E+00  0.00000000E+00  0.00000000E+00
  0.00000000E+00  0.00000000E+00  0.00000000E+00
  0.00000000E+00  0.00000000E+00  0.00000000E+00
  0.00000000E+00  0.00000000E+00  0.00000000E+00
  0.00000000E+00  0.00000000E+00  0.00000000E+00
  0.00000000E+00  0.00000000E+00  0.00000000E+00
  0.00000000E+00  0.00000000E+00  0.00000000E+00
  0.00000000E+00  0.00000000E+00  0.00000000E+00
  0.00000000E+00  0.00000000E+00  0.00000000E+00
  0.00000000E+00  0.00000000E+00  0.00000000E+00
  0.00000000E+00  0.00000000E+00  0.00000000E+00
  0.00000000E+00  0.00000000E+00  0.00000000E+00
  0.00000000E+00  0.00000000E+00  0.00000000E+00
  0.00000000E+00  0.00000000E+00  0.00000000E+00
  0.00000000E+00  0.00000000E+00  0.00000000E+00
  0.00000000E+00  0.00000000E+00  0.00000000E+00
  0.00000000E+00  0.00000000E+00  0.00000000E+00
  0.00000000E+00  0.00000000E+00  0.00000000E+00
  0.00000000E+00  0.00000000E+00  0.00000000E+00
  0.00000000E+00  0.00000000E+00  0.00000000E+00
  0.00000000E+00  0.00000000E+00  0.00000000E+00
  0.00000000E+00  0.00000000E+00  0.00000000E+00
  0.00000000E+00  0.00000000E+00  0.00000000E+00
  0.00000000E+00  0.00000000E+00  0.00000000E+00
  0.00000000E+00  0.00000000E+00  0.00000000E+00
  0.00000000E+00  0.00000000E+00  0.00000000E+00
  0.00000000E+00  0.00000000E+00  0.00000000E+00
  0.00000000E+00  0.00000000E+00  0.00000000E+00
  0.00000000E+00  0.00000000E+00  0.00000000E+00
  0.00000000E+00  0.00000000E+00  0.00000000E+00
  0.00000000E+00  0.00000000E+00  0.00000000E+00
  0.00000000E+00  0.00000000E+00  0.00000000E+00
  0.00000000E+00  0.00000000E+00  0.00000000E+00
  0.00000000E+00  0.00000000E+00  0.00000000E+00
  0.00000000E+00  0.00000000E+00  0.00000000E+00
  0.00000000E+00  0.00000000E+00  0.00000000E+00
  0.00000000E+00  0.00000000E+00  0.00000000E+00
  0.00000000E+00  0.00000000E+00  0.00000000E+00
  0.00000000E+00  0.00000000E+00  0.00000000E+00
  0.00000000E+00  0.00000000E+00  0.00000000E+00
  0.00000000E+00  0.00000000E+00  0.00000000E+00
  0.00000000E+00  0.00000000E+00  0.00000000E+00
  0.00000000E+00  0.00000000E+00  0.00000000E+00
  0.00000000E+00  0.00000000E+00  0.00000000E+00
  0.00000000E+00  0.00000000E+00  0.00000000E+00
  0.00000000E+00  0.00000000E+00  0.00000000E+00
  0.00000000E+00  0.00000000E+00  0.00000000E+00
  0.00000000E+00  0.00000000E+00  0.00000000E+00
  0.00000000E+00  0.00000000E+00  0.00000000E+00
  0.00000000E+00  0.00000000E+00  0.00000000E+00
  0.00000000E+00  0.00000000E+00  0.00000000E+00
  0.00000000E+00  0.00000000E+00  0.00000000E+00
  0.00000000E+00  0.00000000E+00  0.00000000E+00
  0.00000000E+00  0.00000000E+00  0.00000000E+00
  0.00000000E+00  0.00000000E+00  0.00000000E+00
  0.00000000E+00  0.00000000E+00  0.00000000E+00
  0.00000000E+00  0.00000000E+00  0.00000000E+00
  0.00000000E+00  0.00000000E+00  0.00000000E+00
  0.00000000E+00  0.00000000E+00  0.00000000E+00
  0.00000000E+00  0.00000000E+00  0.00000000E+00
  0.00000000E+00  0.00000000E+00  0.00000000E+00
  0.00000000E+00  0.00000000E+00  0.00000000E+00
  0.00000000E+00  0.00000000E+00  0.00000000E+00
  0.00000000E+00  0.00000000E+00  0.00000000E+00
  0.00000000E+00  0.00000000E+00  0.00000000E+00
  0.00000000E+00  0.00000000E+00  0.00000000E+00
  0.00000000E+00  0.00000000E+00  0.00000000E+00
  0.00000000E+00  0.00000000E+00  0.00000000E+00
  0.00000000E+00  0.00000000E+00  0.00000000E+00
  0.00000000E+00  0.00000000E+00  0.00000000E+00
  0.00000000E+00  0.00000000E+00  0.00000000E+00
  0.00000000E+00  0.00000000E+00  0.00000000E+00
  0.00000000E+00  0.00000000E+00  0.00000000E+00
  0.00000000E+00  0.00000000E+00  0.00000000E+00
  0.00000000E+00  0.00000000E+00  0.00000000E+00
  0.00000000E+00  0.00000000E+00  0.00000000E+00
  0.00000000E+00  0.00000000E+00  0.00000000E+00
  0.00000000E+00  0.00000000E+00  0.00000000E+00
  0.00000000E+00  0.00000000E+00  0.00000000E+00
  0.00000000E+00  0.00000000E+00  0.00000000E+00
  0.00000000E+00  0.00000000E+00  0.00000000E+00
  0.00000000E+00  0.00000000E+00  0.00000000E+00
  0.00000000E+00  0.00000000E+00  0.00000000E+00
  0.00000000E+00  0.00000000E+00  0.00000000E+00
  0.00000000E+00  0.00000000E+00  0.00000000E+00
  0.00000000E+00  0.00000000E+00  0.00000000E+00
  0.00000000E+00  0.00000000E+00  0.00000000E+00
  0.00000000E+00  0.00000000E+00  0.00000000E+00
  0.00000000E+00  0.00000000E+00  0.00000000E+00
  0.00000000E+00  0.00000000E+00  0.00000000E+00
  0.00000000E+00  0.00000000E+00  0.00000000E+00
  0.00000000E+00  0.00000000E+00  0.00000000E+00
  0.00000000E+00  0.00000000E+00  0.00000000E+00
  0.00000000E+00  0.00000000E+00  0.00000000E+00
  0.00000000E+00  0.00000000E+00  0.00000000E+00
  0.00000000E+00  0.00000000E+00  0.00000000E+00
  0.00000000E+00  0.00000000E+00  0.00000000E+00
