SiC Unit Cell                           
   1.00000000000000     
    13.0800000000000001    0.0000000000000000    0.0000000000000000
     0.0000000000000000   13.0800000000000001    0.0000000000000000
     0.0000000000000000    0.0000000000000000   13.0800000000000001
   C    Si
   108   108
Direct
  0.0000000000000000  0.0000000000000000  0.0000000000000000
  0.1666669999999968  0.1666669999999968  0.0000000000000000
  0.1666669999999968  0.0000000000000000  0.1666669999999968
  0.0000000000000000  0.1666669999999968  0.1666669999999968
  0.3333330000000032  0.0000000000000000  0.0000000000000000
  0.6666669999999968  0.0000000000000000  0.0000000000000000
  0.5000000000000000  0.1666669999999968  0.0000000000000000
  0.8333330000000032  0.1666669999999968  0.0000000000000000
  0.5000000000000000  0.0000000000000000  0.1666669999999968
  0.8333330000000032  0.0000000000000000  0.1666669999999968
  0.3333330000000032  0.1666669999999968  0.1666669999999968
  0.6666669999999968  0.1666669999999968  0.1666669999999968
  0.0000000000000000  0.3333330000000032  0.0000000000000000
  0.0000000000000000  0.6666669999999968  0.0000000000000000
  0.1666669999999968  0.5000000000000000  0.0000000000000000
  0.1666669999999968  0.8333330000000032  0.0000000000000000
  0.1666669999999968  0.3333330000000032  0.1666669999999968
  0.1666669999999968  0.6666669999999968  0.1666669999999968
  0.0000000000000000  0.5000000000000000  0.1666669999999968
  0.0000000000000000  0.8333330000000032  0.1666669999999968
  0.3333330000000032  0.3333330000000032  0.0000000000000000
  0.3333330000000032  0.6666669999999968  0.0000000000000000
  0.6666669999999968  0.3333330000000032  0.0000000000000000
  0.6666669999999968  0.6666669999999968  0.0000000000000000
  0.5000000000000000  0.5000000000000000  0.0000000000000000
  0.5000000000000000  0.8333330000000032  0.0000000000000000
  0.8333330000000032  0.5000000000000000  0.0000000000000000
  0.8333330000000032  0.8333330000000032  0.0000000000000000
  0.5000000000000000  0.3333330000000032  0.1666669999999968
  0.5000000000000000  0.6666669999999968  0.1666669999999968
  0.8333330000000032  0.3333330000000032  0.1666669999999968
  0.8333330000000032  0.6666669999999968  0.1666669999999968
  0.3333330000000032  0.5000000000000000  0.1666669999999968
  0.3333330000000032  0.8333330000000032  0.1666669999999968
  0.6666669999999968  0.5000000000000000  0.1666669999999968
  0.6666669999999968  0.8333330000000032  0.1666669999999968
  0.0000000000000000  0.0000000000000000  0.3333330000000032
  0.0000000000000000  0.0000000000000000  0.6666669999999968
  0.1666669999999968  0.1666669999999968  0.3333330000000032
  0.1666669999999968  0.1666669999999968  0.6666669999999968
  0.1666669999999968  0.0000000000000000  0.5000000000000000
  0.1666669999999968  0.0000000000000000  0.8333330000000032
  0.0000000000000000  0.1666669999999968  0.5000000000000000
  0.0000000000000000  0.1666669999999968  0.8333330000000032
  0.3333330000000032  0.0000000000000000  0.3333330000000032
  0.3333330000000032  0.0000000000000000  0.6666669999999968
  0.6666669999999968  0.0000000000000000  0.3333330000000032
  0.6666669999999968  0.0000000000000000  0.6666669999999968
  0.5000000000000000  0.1666669999999968  0.3333330000000032
  0.5000000000000000  0.1666669999999968  0.6666669999999968
  0.8333330000000032  0.1666669999999968  0.3333330000000032
  0.8333330000000032  0.1666669999999968  0.6666669999999968
  0.5000000000000000  0.0000000000000000  0.5000000000000000
  0.5000000000000000  0.0000000000000000  0.8333330000000032
  0.8333330000000032  0.0000000000000000  0.5000000000000000
  0.8333330000000032  0.0000000000000000  0.8333330000000032
  0.3333330000000032  0.1666669999999968  0.5000000000000000
  0.3333330000000032  0.1666669999999968  0.8333330000000032
  0.6666669999999968  0.1666669999999968  0.5000000000000000
  0.6666669999999968  0.1666669999999968  0.8333330000000032
  0.0000000000000000  0.3333330000000032  0.3333330000000032
  0.0000000000000000  0.3333330000000032  0.6666669999999968
  0.0000000000000000  0.6666669999999968  0.3333330000000032
  0.0000000000000000  0.6666669999999968  0.6666669999999968
  0.1666669999999968  0.5000000000000000  0.3333330000000032
  0.1666669999999968  0.5000000000000000  0.6666669999999968
  0.1666669999999968  0.8333330000000032  0.3333330000000032
  0.1666669999999968  0.8333330000000032  0.6666669999999968
  0.1666669999999968  0.3333330000000032  0.5000000000000000
  0.1666669999999968  0.3333330000000032  0.8333330000000032
  0.1666669999999968  0.6666669999999968  0.5000000000000000
  0.1666669999999968  0.6666669999999968  0.8333330000000032
  0.0000000000000000  0.5000000000000000  0.5000000000000000
  0.0000000000000000  0.5000000000000000  0.8333330000000032
  0.0000000000000000  0.8333330000000032  0.5000000000000000
  0.0000000000000000  0.8333330000000032  0.8333330000000032
  0.3333330000000032  0.3333330000000032  0.3333330000000032
  0.3333330000000032  0.3333330000000032  0.6666669999999968
  0.3333330000000032  0.6666669999999968  0.3333330000000032
  0.3333330000000032  0.6666669999999968  0.6666669999999968
  0.6666669999999968  0.3333330000000032  0.3333330000000032
  0.6666669999999968  0.3333330000000032  0.6666669999999968
  0.6666669999999968  0.6666669999999968  0.3333330000000032
  0.6666669999999968  0.6666669999999968  0.6666669999999968
  0.5000000000000000  0.5000000000000000  0.3333330000000032
  0.5000000000000000  0.5000000000000000  0.6666669999999968
  0.5000000000000000  0.8333330000000032  0.3333330000000032
  0.5000000000000000  0.8333330000000032  0.6666669999999968
  0.8333330000000032  0.5000000000000000  0.3333330000000032
  0.8333330000000032  0.5000000000000000  0.6666669999999968
  0.8333330000000032  0.8333330000000032  0.3333330000000032
  0.8333330000000032  0.8333330000000032  0.6666669999999968
  0.5000000000000000  0.3333330000000032  0.5000000000000000
  0.5000000000000000  0.3333330000000032  0.8333330000000032
  0.5000000000000000  0.6666669999999968  0.5000000000000000
  0.5000000000000000  0.6666669999999968  0.8333330000000032
  0.8333330000000032  0.3333330000000032  0.5000000000000000
  0.8333330000000032  0.3333330000000032  0.8333330000000032
  0.8333330000000032  0.6666669999999968  0.5000000000000000
  0.8333330000000032  0.6666669999999968  0.8333330000000032
  0.3333330000000032  0.5000000000000000  0.5000000000000000
  0.3333330000000032  0.5000000000000000  0.8333330000000032
  0.3333330000000032  0.8333330000000032  0.5000000000000000
  0.3333330000000032  0.8333330000000032  0.8333330000000032
  0.6666669999999968  0.5000000000000000  0.5000000000000000
  0.6666669999999968  0.5000000000000000  0.8333330000000032
  0.6666669999999968  0.8333330000000032  0.5000000000000000
  0.6666669999999968  0.8333330000000032  0.8333330000000032
  0.0833330000000032  0.0833330000000032  0.0833330000000032
  0.2500000000000000  0.2500000000000000  0.0833330000000032
  0.0833330000000032  0.2500000000000000  0.2500000000000000
  0.2500000000000000  0.0833330000000032  0.2500000000000000
  0.4166669999999968  0.0833330000000032  0.0833330000000032
  0.7500000000000000  0.0833330000000032  0.0833330000000032
  0.5833330000000032  0.2500000000000000  0.0833330000000032
  0.9166669999999968  0.2500000000000000  0.0833330000000032
  0.4166669999999968  0.2500000000000000  0.2500000000000000
  0.7500000000000000  0.2500000000000000  0.2500000000000000
  0.5833330000000032  0.0833330000000032  0.2500000000000000
  0.9166669999999968  0.0833330000000032  0.2500000000000000
  0.0833330000000032  0.4166669999999968  0.0833330000000032
  0.0833330000000032  0.7500000000000000  0.0833330000000032
  0.2500000000000000  0.5833330000000032  0.0833330000000032
  0.2500000000000000  0.9166669999999968  0.0833330000000032
  0.0833330000000032  0.5833330000000032  0.2500000000000000
  0.0833330000000032  0.9166669999999968  0.2500000000000000
  0.2500000000000000  0.4166669999999968  0.2500000000000000
  0.2500000000000000  0.7500000000000000  0.2500000000000000
  0.4166669999999968  0.4166669999999968  0.0833330000000032
  0.4166669999999968  0.7500000000000000  0.0833330000000032
  0.7500000000000000  0.4166669999999968  0.0833330000000032
  0.7500000000000000  0.7500000000000000  0.0833330000000032
  0.5833330000000032  0.5833330000000032  0.0833330000000032
  0.5833330000000032  0.9166669999999968  0.0833330000000032
  0.9166669999999968  0.5833330000000032  0.0833330000000032
  0.9166669999999968  0.9166669999999968  0.0833330000000032
  0.4166669999999968  0.5833330000000032  0.2500000000000000
  0.4166669999999968  0.9166669999999968  0.2500000000000000
  0.7500000000000000  0.5833330000000032  0.2500000000000000
  0.7500000000000000  0.9166669999999968  0.2500000000000000
  0.5833330000000032  0.4166669999999968  0.2500000000000000
  0.5833330000000032  0.7500000000000000  0.2500000000000000
  0.9166669999999968  0.4166669999999968  0.2500000000000000
  0.9166669999999968  0.7500000000000000  0.2500000000000000
  0.0833330000000032  0.0833330000000032  0.4166669999999968
  0.0833330000000032  0.0833330000000032  0.7500000000000000
  0.2500000000000000  0.2500000000000000  0.4166669999999968
  0.2500000000000000  0.2500000000000000  0.7500000000000000
  0.0833330000000032  0.2500000000000000  0.5833330000000032
  0.0833330000000032  0.2500000000000000  0.9166669999999968
  0.2500000000000000  0.0833330000000032  0.5833330000000032
  0.2500000000000000  0.0833330000000032  0.9166669999999968
  0.4166669999999968  0.0833330000000032  0.4166669999999968
  0.4166669999999968  0.0833330000000032  0.7500000000000000
  0.7500000000000000  0.0833330000000032  0.4166669999999968
  0.7500000000000000  0.0833330000000032  0.7500000000000000
  0.5833330000000032  0.2500000000000000  0.4166669999999968
  0.5833330000000032  0.2500000000000000  0.7500000000000000
  0.9166669999999968  0.2500000000000000  0.4166669999999968
  0.9166669999999968  0.2500000000000000  0.7500000000000000
  0.4166669999999968  0.2500000000000000  0.5833330000000032
  0.4166669999999968  0.2500000000000000  0.9166669999999968
  0.7500000000000000  0.2500000000000000  0.5833330000000032
  0.7500000000000000  0.2500000000000000  0.9166669999999968
  0.5833330000000032  0.0833330000000032  0.5833330000000032
  0.5833330000000032  0.0833330000000032  0.9166669999999968
  0.9166669999999968  0.0833330000000032  0.5833330000000032
  0.9166669999999968  0.0833330000000032  0.9166669999999968
  0.0833330000000032  0.4166669999999968  0.4166669999999968
  0.0833330000000032  0.4166669999999968  0.7500000000000000
  0.0833330000000032  0.7500000000000000  0.4166669999999968
  0.0833330000000032  0.7500000000000000  0.7500000000000000
  0.2500000000000000  0.5833330000000032  0.4166669999999968
  0.2500000000000000  0.5833330000000032  0.7500000000000000
  0.2500000000000000  0.9166669999999968  0.4166669999999968
  0.2500000000000000  0.9166669999999968  0.7500000000000000
  0.0833330000000032  0.5833330000000032  0.5833330000000032
  0.0833330000000032  0.5833330000000032  0.9166669999999968
  0.0833330000000032  0.9166669999999968  0.5833330000000032
  0.0833330000000032  0.9166669999999968  0.9166669999999968
  0.2500000000000000  0.4166669999999968  0.5833330000000032
  0.2500000000000000  0.4166669999999968  0.9166669999999968
  0.2500000000000000  0.7500000000000000  0.5833330000000032
  0.2500000000000000  0.7500000000000000  0.9166669999999968
  0.4166669999999968  0.4166669999999968  0.4166669999999968
  0.4166669999999968  0.4166669999999968  0.7500000000000000
  0.4166669999999968  0.7500000000000000  0.4166669999999968
  0.4166669999999968  0.7500000000000000  0.7500000000000000
  0.7500000000000000  0.4166669999999968  0.4166669999999968
  0.7500000000000000  0.4166669999999968  0.7500000000000000
  0.7500000000000000  0.7500000000000000  0.4166669999999968
  0.7500000000000000  0.7500000000000000  0.7500000000000000
  0.5833330000000032  0.5833330000000032  0.4166669999999968
  0.5833330000000032  0.5833330000000032  0.7500000000000000
  0.5833330000000032  0.9166669999999968  0.4166669999999968
  0.5833330000000032  0.9166669999999968  0.7500000000000000
  0.9166669999999968  0.5833330000000032  0.4166669999999968
  0.9166669999999968  0.5833330000000032  0.7500000000000000
  0.9166669999999968  0.9166669999999968  0.4166669999999968
  0.9166669999999968  0.9166669999999968  0.7500000000000000
  0.4166669999999968  0.5833330000000032  0.5833330000000032
  0.4166669999999968  0.5833330000000032  0.9166669999999968
  0.4166669999999968  0.9166669999999968  0.5833330000000032
  0.4166669999999968  0.9166669999999968  0.9166669999999968
  0.7500000000000000  0.5833330000000032  0.5833330000000032
  0.7500000000000000  0.5833330000000032  0.9166669999999968
  0.7500000000000000  0.9166669999999968  0.5833330000000032
  0.7500000000000000  0.9166669999999968  0.9166669999999968
  0.5833330000000032  0.4166669999999968  0.5833330000000032
  0.5833330000000032  0.4166669999999968  0.9166669999999968
  0.5833330000000032  0.7500000000000000  0.5833330000000032
  0.5833330000000032  0.7500000000000000  0.9166669999999968
  0.9166669999999968  0.4166669999999968  0.5833330000000032
  0.9166669999999968  0.4166669999999968  0.9166669999999968
  0.9166669999999968  0.7500000000000000  0.5833330000000032
  0.9166669999999968  0.7500000000000000  0.9166669999999968
 
  0.00000000E+00  0.00000000E+00  0.00000000E+00
  0.00000000E+00  0.00000000E+00  0.00000000E+00
  0.00000000E+00  0.00000000E+00  0.00000000E+00
  0.00000000E+00  0.00000000E+00  0.00000000E+00
  0.00000000E+00  0.00000000E+00  0.00000000E+00
  0.00000000E+00  0.00000000E+00  0.00000000E+00
  0.00000000E+00  0.00000000E+00  0.00000000E+00
  0.00000000E+00  0.00000000E+00  0.00000000E+00
  0.00000000E+00  0.00000000E+00  0.00000000E+00
  0.00000000E+00  0.00000000E+00  0.00000000E+00
  0.00000000E+00  0.00000000E+00  0.00000000E+00
  0.00000000E+00  0.00000000E+00  0.00000000E+00
  0.00000000E+00  0.00000000E+00  0.00000000E+00
  0.00000000E+00  0.00000000E+00  0.00000000E+00
  0.00000000E+00  0.00000000E+00  0.00000000E+00
  0.00000000E+00  0.00000000E+00  0.00000000E+00
  0.00000000E+00  0.00000000E+00  0.00000000E+00
  0.00000000E+00  0.00000000E+00  0.00000000E+00
  0.00000000E+00  0.00000000E+00  0.00000000E+00
  0.00000000E+00  0.00000000E+00  0.00000000E+00
  0.00000000E+00  0.00000000E+00  0.00000000E+00
  0.00000000E+00  0.00000000E+00  0.00000000E+00
  0.00000000E+00  0.00000000E+00  0.00000000E+00
  0.00000000E+00  0.00000000E+00  0.00000000E+00
  0.00000000E+00  0.00000000E+00  0.00000000E+00
  0.00000000E+00  0.00000000E+00  0.00000000E+00
  0.00000000E+00  0.00000000E+00  0.00000000E+00
  0.00000000E+00  0.00000000E+00  0.00000000E+00
  0.00000000E+00  0.00000000E+00  0.00000000E+00
  0.00000000E+00  0.00000000E+00  0.00000000E+00
  0.00000000E+00  0.00000000E+00  0.00000000E+00
  0.00000000E+00  0.00000000E+00  0.00000000E+00
  0.00000000E+00  0.00000000E+00  0.00000000E+00
  0.00000000E+00  0.00000000E+00  0.00000000E+00
  0.00000000E+00  0.00000000E+00  0.00000000E+00
  0.00000000E+00  0.00000000E+00  0.00000000E+00
  0.00000000E+00  0.00000000E+00  0.00000000E+00
  0.00000000E+00  0.00000000E+00  0.00000000E+00
  0.00000000E+00  0.00000000E+00  0.00000000E+00
  0.00000000E+00  0.00000000E+00  0.00000000E+00
  0.00000000E+00  0.00000000E+00  0.00000000E+00
  0.00000000E+00  0.00000000E+00  0.00000000E+00
  0.00000000E+00  0.00000000E+00  0.00000000E+00
  0.00000000E+00  0.00000000E+00  0.00000000E+00
  0.00000000E+00  0.00000000E+00  0.00000000E+00
  0.00000000E+00  0.00000000E+00  0.00000000E+00
  0.00000000E+00  0.00000000E+00  0.00000000E+00
  0.00000000E+00  0.00000000E+00  0.00000000E+00
  0.00000000E+00  0.00000000E+00  0.00000000E+00
  0.00000000E+00  0.00000000E+00  0.00000000E+00
  0.00000000E+00  0.00000000E+00  0.00000000E+00
  0.00000000E+00  0.00000000E+00  0.00000000E+00
  0.00000000E+00  0.00000000E+00  0.00000000E+00
  0.00000000E+00  0.00000000E+00  0.00000000E+00
  0.00000000E+00  0.00000000E+00  0.00000000E+00
  0.00000000E+00  0.00000000E+00  0.00000000E+00
  0.00000000E+00  0.00000000E+00  0.00000000E+00
  0.00000000E+00  0.00000000E+00  0.00000000E+00
  0.00000000E+00  0.00000000E+00  0.00000000E+00
  0.00000000E+00  0.00000000E+00  0.00000000E+00
  0.00000000E+00  0.00000000E+00  0.00000000E+00
  0.00000000E+00  0.00000000E+00  0.00000000E+00
  0.00000000E+00  0.00000000E+00  0.00000000E+00
  0.00000000E+00  0.00000000E+00  0.00000000E+00
  0.00000000E+00  0.00000000E+00  0.00000000E+00
  0.00000000E+00  0.00000000E+00  0.00000000E+00
  0.00000000E+00  0.00000000E+00  0.00000000E+00
  0.00000000E+00  0.00000000E+00  0.00000000E+00
  0.00000000E+00  0.00000000E+00  0.00000000E+00
  0.00000000E+00  0.00000000E+00  0.00000000E+00
  0.00000000E+00  0.00000000E+00  0.00000000E+00
  0.00000000E+00  0.00000000E+00  0.00000000E+00
  0.00000000E+00  0.00000000E+00  0.00000000E+00
  0.00000000E+00  0.00000000E+00  0.00000000E+00
  0.00000000E+00  0.00000000E+00  0.00000000E+00
  0.00000000E+00  0.00000000E+00  0.00000000E+00
  0.00000000E+00  0.00000000E+00  0.00000000E+00
  0.00000000E+00  0.00000000E+00  0.00000000E+00
  0.00000000E+00  0.00000000E+00  0.00000000E+00
  0.00000000E+00  0.00000000E+00  0.00000000E+00
  0.00000000E+00  0.00000000E+00  0.00000000E+00
  0.00000000E+00  0.00000000E+00  0.00000000E+00
  0.00000000E+00  0.00000000E+00  0.00000000E+00
  0.00000000E+00  0.00000000E+00  0.00000000E+00
  0.00000000E+00  0.00000000E+00  0.00000000E+00
  0.00000000E+00  0.00000000E+00  0.00000000E+00
  0.00000000E+00  0.00000000E+00  0.00000000E+00
  0.00000000E+00  0.00000000E+00  0.00000000E+00
  0.00000000E+00  0.00000000E+00  0.00000000E+00
  0.00000000E+00  0.00000000E+00  0.00000000E+00
  0.00000000E+00  0.00000000E+00  0.00000000E+00
  0.00000000E+00  0.00000000E+00  0.00000000E+00
  0.00000000E+00  0.00000000E+00  0.00000000E+00
  0.00000000E+00  0.00000000E+00  0.00000000E+00
  0.00000000E+00  0.00000000E+00  0.00000000E+00
  0.00000000E+00  0.00000000E+00  0.00000000E+00
  0.00000000E+00  0.00000000E+00  0.00000000E+00
  0.00000000E+00  0.00000000E+00  0.00000000E+00
  0.00000000E+00  0.00000000E+00  0.00000000E+00
  0.00000000E+00  0.00000000E+00  0.00000000E+00
  0.00000000E+00  0.00000000E+00  0.00000000E+00
  0.00000000E+00  0.00000000E+00  0.00000000E+00
  0.00000000E+00  0.00000000E+00  0.00000000E+00
  0.00000000E+00  0.00000000E+00  0.00000000E+00
  0.00000000E+00  0.00000000E+00  0.00000000E+00
  0.00000000E+00  0.00000000E+00  0.00000000E+00
  0.00000000E+00  0.00000000E+00  0.00000000E+00
  0.00000000E+00  0.00000000E+00  0.00000000E+00
  0.00000000E+00  0.00000000E+00  0.00000000E+00
  0.00000000E+00  0.00000000E+00  0.00000000E+00
  0.00000000E+00  0.00000000E+00  0.00000000E+00
  0.00000000E+00  0.00000000E+00  0.00000000E+00
  0.00000000E+00  0.00000000E+00  0.00000000E+00
  0.00000000E+00  0.00000000E+00  0.00000000E+00
  0.00000000E+00  0.00000000E+00  0.00000000E+00
  0.00000000E+00  0.00000000E+00  0.00000000E+00
  0.00000000E+00  0.00000000E+00  0.00000000E+00
  0.00000000E+00  0.00000000E+00  0.00000000E+00
  0.00000000E+00  0.00000000E+00  0.00000000E+00
  0.00000000E+00  0.00000000E+00  0.00000000E+00
  0.00000000E+00  0.00000000E+00  0.00000000E+00
  0.00000000E+00  0.00000000E+00  0.00000000E+00
  0.00000000E+00  0.00000000E+00  0.00000000E+00
  0.00000000E+00  0.00000000E+00  0.00000000E+00
  0.00000000E+00  0.00000000E+00  0.00000000E+00
  0.00000000E+00  0.00000000E+00  0.00000000E+00
  0.00000000E+00  0.00000000E+00  0.00000000E+00
  0.00000000E+00  0.00000000E+00  0.00000000E+00
  0.00000000E+00  0.00000000E+00  0.00000000E+00
  0.00000000E+00  0.00000000E+00  0.00000000E+00
  0.00000000E+00  0.00000000E+00  0.00000000E+00
  0.00000000E+00  0.00000000E+00  0.00000000E+00
  0.00000000E+00  0.00000000E+00  0.00000000E+00
  0.00000000E+00  0.00000000E+00  0.00000000E+00
  0.00000000E+00  0.00000000E+00  0.00000000E+00
  0.00000000E+00  0.00000000E+00  0.00000000E+00
  0.00000000E+00  0.00000000E+00  0.00000000E+00
  0.00000000E+00  0.00000000E+00  0.00000000E+00
  0.00000000E+00  0.00000000E+00  0.00000000E+00
  0.00000000E+00  0.00000000E+00  0.00000000E+00
  0.00000000E+00  0.00000000E+00  0.00000000E+00
  0.00000000E+00  0.00000000E+00  0.00000000E+00
  0.00000000E+00  0.00000000E+00  0.00000000E+00
  0.00000000E+00  0.00000000E+00  0.00000000E+00
  0.00000000E+00  0.00000000E+00  0.00000000E+00
  0.00000000E+00  0.00000000E+00  0.00000000E+00
  0.00000000E+00  0.00000000E+00  0.00000000E+00
  0.00000000E+00  0.00000000E+00  0.00000000E+00
  0.00000000E+00  0.00000000E+00  0.00000000E+00
  0.00000000E+00  0.00000000E+00  0.00000000E+00
  0.00000000E+00  0.00000000E+00  0.00000000E+00
  0.00000000E+00  0.00000000E+00  0.00000000E+00
  0.00000000E+00  0.00000000E+00  0.00000000E+00
  0.00000000E+00  0.00000000E+00  0.00000000E+00
  0.00000000E+00  0.00000000E+00  0.00000000E+00
  0.00000000E+00  0.00000000E+00  0.00000000E+00
  0.00000000E+00  0.00000000E+00  0.00000000E+00
  0.00000000E+00  0.00000000E+00  0.00000000E+00
  0.00000000E+00  0.00000000E+00  0.00000000E+00
  0.00000000E+00  0.00000000E+00  0.00000000E+00
  0.00000000E+00  0.00000000E+00  0.00000000E+00
  0.00000000E+00  0.00000000E+00  0.00000000E+00
  0.00000000E+00  0.00000000E+00  0.00000000E+00
  0.00000000E+00  0.00000000E+00  0.00000000E+00
  0.00000000E+00  0.00000000E+00  0.00000000E+00
  0.00000000E+00  0.00000000E+00  0.00000000E+00
  0.00000000E+00  0.00000000E+00  0.00000000E+00
  0.00000000E+00  0.00000000E+00  0.00000000E+00
  0.00000000E+00  0.00000000E+00  0.00000000E+00
  0.00000000E+00  0.00000000E+00  0.00000000E+00
  0.00000000E+00  0.00000000E+00  0.00000000E+00
  0.00000000E+00  0.00000000E+00  0.00000000E+00
  0.00000000E+00  0.00000000E+00  0.00000000E+00
  0.00000000E+00  0.00000000E+00  0.00000000E+00
  0.00000000E+00  0.00000000E+00  0.00000000E+00
  0.00000000E+00  0.00000000E+00  0.00000000E+00
  0.00000000E+00  0.00000000E+00  0.00000000E+00
  0.00000000E+00  0.00000000E+00  0.00000000E+00
  0.00000000E+00  0.00000000E+00  0.00000000E+00
  0.00000000E+00  0.00000000E+00  0.00000000E+00
  0.00000000E+00  0.00000000E+00  0.00000000E+00
  0.00000000E+00  0.00000000E+00  0.00000000E+00
  0.00000000E+00  0.00000000E+00  0.00000000E+00
  0.00000000E+00  0.00000000E+00  0.00000000E+00
  0.00000000E+00  0.00000000E+00  0.00000000E+00
  0.00000000E+00  0.00000000E+00  0.00000000E+00
  0.00000000E+00  0.00000000E+00  0.00000000E+00
  0.00000000E+00  0.00000000E+00  0.00000000E+00
  0.00000000E+00  0.00000000E+00  0.00000000E+00
  0.00000000E+00  0.00000000E+00  0.00000000E+00
  0.00000000E+00  0.00000000E+00  0.00000000E+00
  0.00000000E+00  0.00000000E+00  0.00000000E+00
  0.00000000E+00  0.00000000E+00  0.00000000E+00
  0.00000000E+00  0.00000000E+00  0.00000000E+00
  0.00000000E+00  0.00000000E+00  0.00000000E+00
  0.00000000E+00  0.00000000E+00  0.00000000E+00
  0.00000000E+00  0.00000000E+00  0.00000000E+00
  0.00000000E+00  0.00000000E+00  0.00000000E+00
  0.00000000E+00  0.00000000E+00  0.00000000E+00
  0.00000000E+00  0.00000000E+00  0.00000000E+00
  0.00000000E+00  0.00000000E+00  0.00000000E+00
  0.00000000E+00  0.00000000E+00  0.00000000E+00
  0.00000000E+00  0.00000000E+00  0.00000000E+00
  0.00000000E+00  0.00000000E+00  0.00000000E+00
  0.00000000E+00  0.00000000E+00  0.00000000E+00
  0.00000000E+00  0.00000000E+00  0.00000000E+00
  0.00000000E+00  0.00000000E+00  0.00000000E+00
  0.00000000E+00  0.00000000E+00  0.00000000E+00
  0.00000000E+00  0.00000000E+00  0.00000000E+00
  0.00000000E+00  0.00000000E+00  0.00000000E+00
  0.00000000E+00  0.00000000E+00  0.00000000E+00
  0.00000000E+00  0.00000000E+00  0.00000000E+00
  0.00000000E+00  0.00000000E+00  0.00000000E+00
  0.00000000E+00  0.00000000E+00  0.00000000E+00
  0.00000000E+00  0.00000000E+00  0.00000000E+00
  0.00000000E+00  0.00000000E+00  0.00000000E+00
