SiC Unit Cell
1.000000
13.080000 0.000000 0.000000 
0.000000 13.080000 0.000000 
0.000000 0.000000 13.080000 
C Si 
108 108 
Direct
 0.000000 0.000000 0.000000 T T T 
 0.166667 0.166667 0.000000 T T T 
 0.166667 0.000000 0.166667 T T T 
 0.000000 0.166667 0.166667 T T T 
 0.333333 0.000000 0.000000 T T T 
 0.666667 0.000000 0.000000 T T T 
 0.500000 0.166667 0.000000 T T T 
 0.833333 0.166667 0.000000 T T T 
 0.500000 0.000000 0.166667 T T T 
 0.833333 0.000000 0.166667 T T T 
 0.333333 0.166667 0.166667 T T T 
 0.666667 0.166667 0.166667 T T T 
 0.000000 0.333333 0.000000 T T T 
 0.000000 0.666667 0.000000 T T T 
 0.166667 0.500000 0.000000 T T T 
 0.166667 0.833333 0.000000 T T T 
 0.166667 0.333333 0.166667 T T T 
 0.166667 0.666667 0.166667 T T T 
 0.000000 0.500000 0.166667 T T T 
 0.000000 0.833333 0.166667 T T T 
 0.333333 0.333333 0.000000 T T T 
 0.333333 0.666667 0.000000 T T T 
 0.666667 0.333333 0.000000 T T T 
 0.666667 0.666667 0.000000 T T T 
 0.500000 0.500000 0.000000 T T T 
 0.500000 0.833333 0.000000 T T T 
 0.833333 0.500000 0.000000 T T T 
 0.833333 0.833333 0.000000 T T T 
 0.500000 0.333333 0.166667 T T T 
 0.500000 0.666667 0.166667 T T T 
 0.833333 0.333333 0.166667 T T T 
 0.833333 0.666667 0.166667 T T T 
 0.333333 0.500000 0.166667 T T T 
 0.333333 0.833333 0.166667 T T T 
 0.666667 0.500000 0.166667 T T T 
 0.666667 0.833333 0.166667 T T T 
 0.000000 0.000000 0.333333 T T T 
 0.000000 0.000000 0.666667 T T T 
 0.166667 0.166667 0.333333 T T T 
 0.166667 0.166667 0.666667 T T T 
 0.166667 0.000000 0.500000 T T T 
 0.166667 0.000000 0.833333 T T T 
 0.000000 0.166667 0.500000 T T T 
 0.000000 0.166667 0.833333 T T T 
 0.333333 0.000000 0.333333 T T T 
 0.333333 0.000000 0.666667 T T T 
 0.666667 0.000000 0.333333 T T T 
 0.666667 0.000000 0.666667 T T T 
 0.500000 0.166667 0.333333 T T T 
 0.500000 0.166667 0.666667 T T T 
 0.833333 0.166667 0.333333 T T T 
 0.833333 0.166667 0.666667 T T T 
 0.500000 0.000000 0.500000 T T T 
 0.500000 0.000000 0.833333 T T T 
 0.833333 0.000000 0.500000 T T T 
 0.833333 0.000000 0.833333 T T T 
 0.333333 0.166667 0.500000 T T T 
 0.333333 0.166667 0.833333 T T T 
 0.666667 0.166667 0.500000 T T T 
 0.666667 0.166667 0.833333 T T T 
 0.000000 0.333333 0.333333 T T T 
 0.000000 0.333333 0.666667 T T T 
 0.000000 0.666667 0.333333 T T T 
 0.000000 0.666667 0.666667 T T T 
 0.166667 0.500000 0.333333 T T T 
 0.166667 0.500000 0.666667 T T T 
 0.166667 0.833333 0.333333 T T T 
 0.166667 0.833333 0.666667 T T T 
 0.166667 0.333333 0.500000 T T T 
 0.166667 0.333333 0.833333 T T T 
 0.166667 0.666667 0.500000 T T T 
 0.166667 0.666667 0.833333 T T T 
 0.000000 0.500000 0.500000 T T T 
 0.000000 0.500000 0.833333 T T T 
 0.000000 0.833333 0.500000 T T T 
 0.000000 0.833333 0.833333 T T T 
 0.333333 0.333333 0.333333 T T T 
 0.333333 0.333333 0.666667 T T T 
 0.333333 0.666667 0.333333 T T T 
 0.333333 0.666667 0.666667 T T T 
 0.666667 0.333333 0.333333 T T T 
 0.666667 0.333333 0.666667 T T T 
 0.666667 0.666667 0.333333 T T T 
 0.666667 0.666667 0.666667 T T T 
 0.500000 0.500000 0.333333 T T T 
 0.500000 0.500000 0.666667 T T T 
 0.500000 0.833333 0.333333 T T T 
 0.500000 0.833333 0.666667 T T T 
 0.833333 0.500000 0.333333 T T T 
 0.833333 0.500000 0.666667 T T T 
 0.833333 0.833333 0.333333 T T T 
 0.833333 0.833333 0.666667 T T T 
 0.500000 0.333333 0.500000 T T T 
 0.500000 0.333333 0.833333 T T T 
 0.500000 0.666667 0.500000 T T T 
 0.500000 0.666667 0.833333 T T T 
 0.833333 0.333333 0.500000 T T T 
 0.833333 0.333333 0.833333 T T T 
 0.833333 0.666667 0.500000 T T T 
 0.833333 0.666667 0.833333 T T T 
 0.333333 0.500000 0.500000 T T T 
 0.333333 0.500000 0.833333 T T T 
 0.333333 0.833333 0.500000 T T T 
 0.333333 0.833333 0.833333 T T T 
 0.666667 0.500000 0.500000 T T T 
 0.666667 0.500000 0.833333 T T T 
 0.666667 0.833333 0.500000 T T T 
 0.666667 0.833333 0.833333 T T T 
 0.083333 0.083333 0.083333 T T T 
 0.250000 0.250000 0.083333 T T T 
 0.083333 0.250000 0.250000 T T T 
 0.250000 0.083333 0.250000 T T T 
 0.416667 0.083333 0.083333 T T T 
 0.750000 0.083333 0.083333 T T T 
 0.583333 0.250000 0.083333 T T T 
 0.916667 0.250000 0.083333 T T T 
 0.416667 0.250000 0.250000 T T T 
 0.750000 0.250000 0.250000 T T T 
 0.583333 0.083333 0.250000 T T T 
 0.916667 0.083333 0.250000 T T T 
 0.083333 0.416667 0.083333 T T T 
 0.083333 0.750000 0.083333 T T T 
 0.250000 0.583333 0.083333 T T T 
 0.250000 0.916667 0.083333 T T T 
 0.083333 0.583333 0.250000 T T T 
 0.083333 0.916667 0.250000 T T T 
 0.250000 0.416667 0.250000 T T T 
 0.250000 0.750000 0.250000 T T T 
 0.416667 0.416667 0.083333 T T T 
 0.416667 0.750000 0.083333 T T T 
 0.750000 0.416667 0.083333 T T T 
 0.750000 0.750000 0.083333 T T T 
 0.583333 0.583333 0.083333 T T T 
 0.583333 0.916667 0.083333 T T T 
 0.916667 0.583333 0.083333 T T T 
 0.916667 0.916667 0.083333 T T T 
 0.416667 0.583333 0.250000 T T T 
 0.416667 0.916667 0.250000 T T T 
 0.750000 0.583333 0.250000 T T T 
 0.750000 0.916667 0.250000 T T T 
 0.583333 0.416667 0.250000 T T T 
 0.583333 0.750000 0.250000 T T T 
 0.916667 0.416667 0.250000 T T T 
 0.916667 0.750000 0.250000 T T T 
 0.083333 0.083333 0.416667 T T T 
 0.083333 0.083333 0.750000 T T T 
 0.250000 0.250000 0.416667 T T T 
 0.250000 0.250000 0.750000 T T T 
 0.083333 0.250000 0.583333 T T T 
 0.083333 0.250000 0.916667 T T T 
 0.250000 0.083333 0.583333 T T T 
 0.250000 0.083333 0.916667 T T T 
 0.416667 0.083333 0.416667 T T T 
 0.416667 0.083333 0.750000 T T T 
 0.750000 0.083333 0.416667 T T T 
 0.750000 0.083333 0.750000 T T T 
 0.583333 0.250000 0.416667 T T T 
 0.583333 0.250000 0.750000 T T T 
 0.916667 0.250000 0.416667 T T T 
 0.916667 0.250000 0.750000 T T T 
 0.416667 0.250000 0.583333 T T T 
 0.416667 0.250000 0.916667 T T T 
 0.750000 0.250000 0.583333 T T T 
 0.750000 0.250000 0.916667 T T T 
 0.583333 0.083333 0.583333 T T T 
 0.583333 0.083333 0.916667 T T T 
 0.916667 0.083333 0.583333 T T T 
 0.916667 0.083333 0.916667 T T T 
 0.083333 0.416667 0.416667 T T T 
 0.083333 0.416667 0.750000 T T T 
 0.083333 0.750000 0.416667 T T T 
 0.083333 0.750000 0.750000 T T T 
 0.250000 0.583333 0.416667 T T T 
 0.250000 0.583333 0.750000 T T T 
 0.250000 0.916667 0.416667 T T T 
 0.250000 0.916667 0.750000 T T T 
 0.083333 0.583333 0.583333 T T T 
 0.083333 0.583333 0.916667 T T T 
 0.083333 0.916667 0.583333 T T T 
 0.083333 0.916667 0.916667 T T T 
 0.250000 0.416667 0.583333 T T T 
 0.250000 0.416667 0.916667 T T T 
 0.250000 0.750000 0.583333 T T T 
 0.250000 0.750000 0.916667 T T T 
 0.416667 0.416667 0.416667 T T T 
 0.416667 0.416667 0.750000 T T T 
 0.416667 0.750000 0.416667 T T T 
 0.416667 0.750000 0.750000 T T T 
 0.750000 0.416667 0.416667 T T T 
 0.750000 0.416667 0.750000 T T T 
 0.750000 0.750000 0.416667 T T T 
 0.750000 0.750000 0.750000 T T T 
 0.583333 0.583333 0.416667 T T T 
 0.583333 0.583333 0.750000 T T T 
 0.583333 0.916667 0.416667 T T T 
 0.583333 0.916667 0.750000 T T T 
 0.916667 0.583333 0.416667 T T T 
 0.916667 0.583333 0.750000 T T T 
 0.916667 0.916667 0.416667 T T T 
 0.916667 0.916667 0.750000 T T T 
 0.416667 0.583333 0.583333 T T T 
 0.416667 0.583333 0.916667 T T T 
 0.416667 0.916667 0.583333 T T T 
 0.416667 0.916667 0.916667 T T T 
 0.750000 0.583333 0.583333 T T T 
 0.750000 0.583333 0.916667 T T T 
 0.750000 0.916667 0.583333 T T T 
 0.750000 0.916667 0.916667 T T T 
 0.583333 0.416667 0.583333 T T T 
 0.583333 0.416667 0.916667 T T T 
 0.583333 0.750000 0.583333 T T T 
 0.583333 0.750000 0.916667 T T T 
 0.916667 0.416667 0.583333 T T T 
 0.916667 0.416667 0.916667 T T T 
 0.916667 0.750000 0.583333 T T T 
 0.916667 0.750000 0.916667 T T T 
